4
Lattice="4.19640016556 0.0 0.0 0.00889999978244 4.20380020142 0.0 -0.0110999997705 0.0162000004202 4.20480012894" Properties=species:S:1:pos:R:3:forces:R:3 energy=-46.43773 stress="26565.65 -1735.6799999999998 2480.6400000000003 -1735.6799999999998 28315.010000000002 -3741.6200000000003 2480.6400000000003 -3741.6200000000003 17263.329999999998"
Ta 2.0927 0.0081 2.1024 -0.00063 -0.000147 2e-05
Ta 2.1026 2.1019 0.0 0.00063 0.000147 -2e-05
Ta -0.0011 2.11 2.1024 9.4e-05 3.4e-05 -2e-06
Ta 0.0 0.0 0.0 -9.4e-05 -3.4e-05 2e-06
