4
Lattice="4.21169996262 0.0 0.0 -0.0137999998406 4.18540000916 0.0 0.00350000010803 0.016799999401 4.19210004807" Properties=species:S:1:pos:R:3:forces:R:3 energy=-46.432438 stress="38865.54 2976.27 -1187.3700000000001 2976.27 32433.36 -3670.5899999999997 -1187.3700000000001 -3670.5899999999997 24012.71"
Ta 2.0938 4.1938 2.0961 0.000109 1.5e-05 -0.000266
Ta 2.0989 2.0927 0.0 0.000626 -5.5e-05 0.000181
Ta -0.0051 2.1011 2.0961 -0.000626 5.5e-05 -0.000181
Ta 0.0 0.0 0.0 -0.000109 -1.5e-05 0.000266
