4
Lattice="4.18179988861 0.0 0.0 -0.00949999969453 4.19159984589 0.0 0.0148000000045 0.00139999995008 4.19890022278" Properties=species:S:1:pos:R:3:forces:R:3 energy=-46.422628 stress="43385.56 2136.82 -3260.5400000000004 2136.82 46015.15 -518.6500000000001 -3260.5400000000004 -518.6500000000001 33939.47"
Ta 2.0888 4.1923 2.0995 -0.000281 -0.00027 -0.000582
Ta 2.0861 2.0958 0.0 0.000281 0.00027 0.000582
Ta 4.1844 2.0965 2.0995 0.000629 0.000286 -0.000561
Ta 0.0 0.0 0.0 -0.000629 -0.000286 0.000561
