4
Lattice="4.19710016251 0.0 0.0 0.017899999395 4.18270015717 0.0 -0.00960000045598 -0.01600000076 4.20739984512" Properties=species:S:1:pos:R:3:forces:R:3 energy=-46.429408 stress="37387.92 -3190.48 1878.9499999999998 -3190.48 32357.480000000003 3103.4700000000003 1878.9499999999998 3103.4700000000003 25220.76"
Ta 2.0938 -0.008 2.1037 -0.000335 0.000327 5.2e-05
Ta 2.1075 2.0914 0.0 0.000335 -0.000327 -5.2e-05
Ta 0.0042 2.0834 2.1037 -0.000324 -0.000492 4.2e-05
Ta 0.0 0.0 0.0 0.000324 0.000492 -4.2e-05
