4
Lattice="4.21759986877 0.0 0.0 0.0156999994069 4.18800020218 0.0 0.00659999996424 0.0181000009179 4.18650007248" Properties=species:S:1:pos:R:3:forces:R:3 energy=-46.434505 stress="37654.36 -3876.7999999999997 -1440.8799999999999 -3876.7999999999997 32519.67 -4103.17 -1440.8799999999999 -4103.17 23829.38"
Ta 2.1278 4.197 2.0932 -0.000269 0.000298 0.000324
Ta 2.1166 2.094 0.0 0.000269 -0.000298 -0.000324
Ta 4.2287 2.103 2.0932 0.000297 0.000285 0.000327
Ta 0.0 0.0 0.0 -0.000297 -0.000285 -0.000327
