4
Lattice="4.20219993591 0.0 0.0 -0.0137000000104 4.18510007858 0.0 0.0170000009239 0.000399999989895 4.19110012054" Properties=species:S:1:pos:R:3:forces:R:3 energy=-46.4269 stress="42344.0 2996.3700000000003 -4106.58 2996.3700000000003 39499.920000000006 161.89000000000001 -4106.58 161.89000000000001 29485.66"
Ta 2.1096 0.0002 2.0955 3.6e-05 -2.9e-05 0.000575
Ta 2.0943 2.0925 0.0 -0.000498 0.000956 -0.000492
Ta 0.0017 2.0928 2.0955 5e-06 -0.000949 0.000486
Ta 0.0 0.0 0.0 0.000457 2.2e-05 -0.000569
