4
Lattice="4.21309995651 0.0 0.0 0.00989999994636 4.17939996719 0.0 -0.0111999996006 -0.0109000001103 4.19469976425" Properties=species:S:1:pos:R:3:forces:R:3 energy=-46.431513 stress="38571.840000000004 -2057.94 2001.0400000000002 -2057.94 31128.620000000003 2212.8199999999997 2001.0400000000002 2212.8199999999997 25395.620000000003"
Ta 2.101 -0.0054 2.0973 -0.000812 -0.000699 0.000382
Ta 2.1115 2.0897 0.0 -5.2e-05 0.000172 -0.000317
Ta 4.2124 2.0842 2.0973 0.000823 0.000706 0.000273
Ta 0.0 0.0 0.0 4.1e-05 -0.000179 -0.000337
