4
Lattice="4.18400001526 0.0 0.0 -0.00139999995008 4.20389986038 0.0 -0.0186000000685 -0.0144999995828 4.21430015564" Properties=species:S:1:pos:R:3:forces:R:3 energy=-46.435527 stress="26601.199999999997 224.89999999999998 3984.39 224.89999999999998 32506.140000000003 3199.5499999999997 3984.39 3199.5499999999997 20323.48"
Ta 2.0813 4.1966 2.1072 -5.7e-05 0.000574 -0.000235
Ta 2.0913 2.102 0.0 5.7e-05 -0.000574 0.000235
Ta -0.01 2.0947 2.1072 7.8e-05 -6.3e-05 -0.000195
Ta 0.0 0.0 0.0 -7.8e-05 6.3e-05 0.000195
