4
Lattice="4.17980003357 0.0 0.0 0.00789999961853 4.21220016479 0.0 0.0197000000626 -0.00270000007004 4.2185997963" Properties=species:S:1:pos:R:3:forces:R:3 energy=-46.438916 stress="20722.52 -1865.4599999999998 -4386.49 -1865.4599999999998 29240.06 779.2900000000001 -4386.49 779.2900000000001 15461.880000000001"
Ta 2.0998 -0.0013 2.1093 -0.00064 -0.000286 9e-05
Ta 2.0939 2.1061 0.0 -0.000872 0.000312 -7.4e-05
Ta 4.1936 2.1048 2.1093 0.000872 -0.000312 7.4e-05
Ta 0.0 0.0 0.0 0.00064 0.000286 -9e-05
