 # Bcc Ta oriented X=[100], Y=[010], Z=[001].
 CRYSTAL
 PRIMVEC
      3.30000000        0.00000000        0.00000000
      0.00000000        3.30000000        0.00000000
      0.00000000        0.00000000        3.30000000
 CONVVEC
      3.30000000        0.00000000        0.00000000
      0.00000000        3.30000000        0.00000000
      0.00000000        0.00000000        3.30000000
 PRIMCOORD
        2 1
73        0.00000000        0.00000000        0.00000000
73        1.65000000        1.65000000        1.65000000
