4
Lattice="4.20109987259 0.0 0.0 0.00289999996312 4.2077999115 0.0 0.00179999996908 0.00260000000708 4.19890022278" Properties=species:S:1:pos:R:3:forces:R:3 energy=-46.439922 stress="27455.690000000002 -990.9599999999999 -176.72 -990.9599999999999 29472.14 -256.46000000000004 -176.72 -256.46000000000004 15890.19"
Ta 2.1015 0.0013 2.0994 -0.000776 -9.4e-05 0.000494
Ta 2.102 2.1039 0.0 -0.00018 1.1e-05 -0.000461
Ta 4.2034 2.1052 2.0994 0.000991 9.2e-05 0.000337
Ta 0.0 0.0 0.0 -3.5e-05 -9e-06 -0.00037
