4
Lattice="4.18879985809 0.0 0.0 -0.0208000000566 4.18480014801 0.0 -0.00730000017211 -0.0186999998987 4.19089984894" Properties=species:S:1:pos:R:3:forces:R:3 energy=-46.418078 stress="45790.12 4993.91 1730.1100000000001 4993.91 45930.82 3649.4300000000003 1730.1100000000001 3649.4300000000003 35583.67"
Ta 2.0907 -0.0093 2.0955 0.000623 -0.000961 -0.000332
Ta 2.084 2.0924 0.0 -0.000626 -0.000189 0.000487
Ta 4.1747 2.083 2.0955 0.000372 0.001139 -0.000549
Ta 0.0 0.0 0.0 -0.000369 1e-05 0.000393
