4
Lattice="4.2079000473 0.0 0.0 -0.0097000002861 4.21920013428 0.0 -0.00490000005811 -0.00999999977648 4.20109987259" Properties=species:S:1:pos:R:3:forces:R:3 energy=-46.446416 stress="19209.399999999998 2025.1299999999999 1589.1299999999999 2025.1299999999999 20626.989999999998 2446.81 1589.1299999999999 2446.81 6438.570000000001"
Ta 2.1015 -0.005 2.1006 -2.8e-05 -0.000105 -0.000311
Ta 2.0991 2.1096 0.0 2.8e-05 0.000105 0.000311
Ta -0.0073 2.1046 2.1006 -2.8e-05 -0.000105 -0.000311
Ta 0.0 0.0 0.0 2.8e-05 0.000105 0.000311
