4
Lattice="4.20370006561 0.0 0.0 -0.0200999993831 4.21630001068 0.0 -0.0164000000805 -0.0195000004023 4.20209980011" Properties=species:S:1:pos:R:3:forces:R:3 energy=-46.443535 stress="20218.039999999997 4818.6900000000005 3580.07 4818.6900000000005 21841.62 4429.02 3580.07 4429.02 8549.369999999999"
Ta 2.0736 4.2065 2.1011 -0.000398 0.000783 -0.000458
Ta 2.0918 2.1082 0.0 0.000398 -0.000783 0.000458
Ta -0.0182 2.0984 2.1011 -0.000248 -0.000173 -0.000438
Ta 0.0 0.0 0.0 0.000248 0.000173 0.000438
