64
Lattice="10.6000003815 0.0 0.0 0.0 10.6000003815 0.0 0.0 0.0 10.6000003815" Properties=species:S:1:pos:R:3:forces:R:3 energy=-754.279613 stress="23907.050000000003 444.79 -765.15 444.79 24515.940000000002 375.59 -765.15 375.59 27487.829999999998"
Ta 0.00046 10.54735 10.58932 0.114704 0.911029 0.002417
Ta 2.73129 2.71027 2.64805 -1.312269 -0.768934 0.192601
Ta 1.30416 2.70676 0.05081 -0.549542 -0.385376 -0.090451
Ta 3.9224 2.56802 0.05914 1.338111 0.432571 -0.522326
Ta 10.52754 1.32714 2.64946 0.526452 0.497736 0.118023
Ta 10.58917 3.98207 2.62548 0.027974 -0.098405 0.015828
Ta 2.64792 0.02452 1.38081 -0.204416 -0.141407 -1.100083
Ta 2.59488 0.05512 3.95199 0.552837 -0.178236 0.473214
Ta 5.22138 10.52799 0.03746 0.576453 0.970244 -0.579639
Ta 7.88634 2.63138 2.61996 0.902337 0.559648 1.080475
Ta 6.69452 2.7219 0.06773 -2.02583 -0.335157 -0.878841
Ta 9.21373 2.71014 0.05862 1.514389 -0.315085 -0.524943
Ta 5.3281 1.39418 2.60417 -0.26237 -1.230172 0.420769
Ta 5.2637 3.95414 2.69271 0.464892 1.262082 -0.270578
Ta 7.90795 0.06254 1.39383 0.167236 -0.202524 -1.058609
Ta 7.94511 10.51799 3.98105 0.185425 0.426977 0.087026
Ta 10.57577 5.37732 10.54307 0.605017 -0.422613 0.786988
Ta 2.70528 7.92008 2.71672 -0.16284 0.53844 -0.654288
Ta 1.40108 7.96156 10.56262 -1.21314 -0.180661 0.475699
Ta 3.94259 7.88815 10.51865 0.693466 0.102031 0.668128
Ta 0.05295 6.61799 2.66959 -0.152823 0.384734 -0.111952
Ta 0.0041 9.32626 2.60831 0.291126 -0.868362 0.393931
Ta 2.66819 5.248 1.34131 -0.179205 0.374746 -1.338983
Ta 2.57134 5.28818 3.89302 0.254849 0.332843 1.641299
Ta 0.08271 0.0036 5.29844 -1.048937 -0.101097 -0.319135
Ta 2.56753 2.70781 8.0214 1.017266 -0.740171 -0.566662
Ta 1.30891 2.64281 5.34837 0.403908 0.226225 -0.301649
Ta 3.96187 2.73119 5.27973 0.36121 -0.332647 0.382172
Ta 1e-05 1.31854 7.9193 -0.134684 -0.420557 0.336931
Ta 10.58062 3.94546 7.96883 0.091943 0.393742 -0.089206
Ta 2.60743 10.5971 6.59487 0.481207 0.365851 0.394927
Ta 2.59982 0.05852 9.25312 0.155387 -0.327875 0.594672
Ta 5.343 5.33735 10.58109 -0.354201 -0.481611 0.070778
Ta 8.0183 7.97031 2.57959 -0.638975 -0.537484 0.627877
Ta 6.56415 8.01596 10.54595 1.046228 -0.215805 0.200416
Ta 9.3142 8.00708 0.07335 -0.389686 -0.132571 -0.908238
Ta 5.28371 6.62455 2.60926 0.349202 0.295946 0.196375
Ta 5.365 9.35513 2.65232 -0.276908 -1.072093 0.33487
Ta 7.99421 5.27285 1.26512 -0.338816 0.417402 0.989409
Ta 7.93677 5.32858 3.96514 -0.064889 -0.126317 0.026895
Ta 5.29831 0.06384 5.34991 -0.237157 -0.294846 -0.502816
Ta 7.98101 2.63404 7.9256 -0.201557 -0.256297 0.618786
Ta 6.68687 2.58375 5.27465 -0.880538 0.491034 0.225753
Ta 9.31724 2.59345 5.36746 -0.514197 0.139552 -0.594594
Ta 5.30469 1.39236 7.90055 -0.241299 -1.127636 0.542064
Ta 5.36637 3.96474 7.94588 -0.457508 0.623304 -0.045721
Ta 7.96852 10.54416 6.59542 0.045419 0.456297 0.883036
Ta 8.01553 0.03504 9.33832 -0.703646 -0.11872 -0.79377
Ta 10.53751 5.2766 5.33019 0.186467 0.354842 -0.464356
Ta 2.67185 7.99879 7.94992 -0.462825 -0.70472 -0.660751
Ta 1.32425 7.97625 5.27971 -0.162279 -0.301471 0.211964
Ta 3.99685 7.99185 5.33585 0.128267 -0.133747 -0.138891
Ta 0.00789 6.57979 7.98241 0.224508 0.703879 -0.465686
Ta 10.56258 9.24146 7.92821 0.298346 0.405066 0.164699
Ta 2.62183 5.25654 6.57113 0.142704 0.580891 0.073062
Ta 2.62673 5.24695 9.20881 0.295489 0.626384 1.099379
Ta 5.2818 5.28462 5.32566 0.254473 0.449594 -0.359163
Ta 7.95127 7.97098 7.89566 -0.109482 -0.099213 1.128432
Ta 6.69889 8.00506 5.30113 -1.722141 -0.416627 -0.484246
Ta 9.22006 8.02217 5.33119 1.590079 -0.664694 -0.530738
Ta 5.3507 6.64908 7.93434 -0.272774 -0.59058 -0.047159
Ta 5.22906 9.26778 7.99824 0.577132 0.931079 -0.408552
Ta 7.96263 5.26515 6.66322 -0.184291 0.081851 -0.89845
Ta 8.00683 5.33642 9.24793 -0.405275 -0.01231 0.25158
