64
Lattice="10.6000003815 0.0 0.0 0.0 10.6000003815 0.0 0.0 0.0 10.6000003815" Properties=species:S:1:pos:R:3:forces:R:3 energy=-754.0221 stress="26594.42 1368.85 19.48 1368.85 26417.43 -1442.27 19.48 -1442.27 23937.75"
Ta 10.59872 10.5966 0.05505 -0.231571 0.031614 -0.560153
Ta 2.72054 2.66769 2.56793 -0.779697 -0.12909 0.784258
Ta 1.2783 2.60895 0.03547 0.744629 0.548126 -0.214124
Ta 3.95508 2.65628 10.5551 -0.165396 0.001128 0.026529
Ta 0.03293 1.39934 2.6967 0.072305 -0.873594 -0.208971
Ta 10.5651 4.05678 2.65596 0.527021 -1.331302 0.031311
Ta 2.60171 10.52714 1.285 0.350354 0.537482 0.600499
Ta 2.68709 10.58122 3.91851 -0.372039 0.361715 0.809071
Ta 5.31795 0.08026 0.03906 -0.106989 -0.635521 -0.720814
Ta 8.02486 2.64122 2.59891 -0.739467 0.359337 0.641206
Ta 6.60369 2.73118 0.06843 0.678906 -0.310297 -0.697991
Ta 9.30745 2.57138 10.58055 -1.01243 0.693756 -0.108245
Ta 5.35248 1.38217 2.58572 -0.13929 -0.071214 0.685498
Ta 5.27678 4.05493 2.58839 0.361124 -1.418968 0.248615
Ta 7.97704 10.56983 1.33943 -0.226745 0.137547 0.385956
Ta 7.9205 10.58925 4.02197 -0.097537 0.228845 -1.559747
Ta 10.58688 5.37691 0.04598 -0.241278 -0.869238 -0.792618
Ta 2.56928 7.98994 2.68334 0.744667 -0.548988 -0.270704
Ta 1.26784 7.95054 0.01116 0.281468 0.07337 -0.236417
Ta 3.9146 8.01616 10.55414 0.995063 -0.220303 0.353326
Ta 10.54844 6.60413 2.59023 0.147364 1.01708 0.40752
Ta 10.5757 9.25815 2.63489 -0.140904 0.492732 0.101556
Ta 2.66105 5.2801 1.30191 -0.364702 0.402682 -0.011419
Ta 2.6432 5.35885 3.92681 -0.227023 -0.472196 0.151009
Ta 10.53608 10.55781 5.26416 1.288203 0.545609 0.251638
Ta 2.60772 2.73015 7.98088 0.261788 -1.092199 -0.8427
Ta 1.24268 2.58441 5.28609 1.180704 0.409883 0.0645
Ta 3.99146 2.5757 5.25407 -0.757243 0.334145 0.121851
Ta 10.51746 1.40756 8.00795 0.326733 -1.91194 -0.281886
Ta 0.00974 3.9413 7.96949 -0.442991 1.619821 -0.172523
Ta 2.7025 10.58938 6.62226 -0.427598 0.249852 0.029935
Ta 2.67552 0.00093 9.32012 -0.030321 0.09604 -1.176661
Ta 5.21931 5.28624 10.52268 0.567659 0.751713 1.05061
Ta 7.92372 7.92335 2.69137 -0.276611 0.573618 -0.487148
Ta 6.67129 7.91947 0.00781 -1.67251 0.193902 0.064344
Ta 9.22152 8.02659 0.00287 0.769306 -0.25307 0.030428
Ta 5.33288 6.56827 2.67559 -0.356132 1.879818 -0.275818
Ta 5.21843 9.3313 2.61368 0.313957 -1.184708 0.134729
Ta 7.93465 5.34206 1.38987 -0.27093 -0.232294 -1.254009
Ta 7.94771 5.35777 3.99603 -0.441572 -0.509412 0.402878
Ta 5.28258 10.54181 5.27443 0.165589 0.546578 -0.181307
Ta 7.87019 2.58685 7.88448 0.864444 0.720171 0.90474
Ta 6.61351 2.69961 5.33299 -0.298459 -0.117041 -0.655843
Ta 9.20963 2.61413 5.29428 0.646321 0.352518 0.003302
Ta 5.381 1.3824 7.94181 -1.162347 -0.755975 0.017657
Ta 5.28467 4.01816 7.99502 0.024319 -0.640279 -0.524219
Ta 8.00243 10.5584 6.55969 -0.64714 0.462493 1.495007
Ta 7.92724 0.03497 9.30326 0.221614 -0.134477 -0.661187
Ta 10.55391 5.32768 5.23195 0.476568 -0.381016 0.980462
Ta 2.64406 7.95567 7.93345 0.001297 0.120229 0.191712
Ta 1.2986 7.9027 5.33624 0.708615 0.289977 -0.158132
Ta 4.04604 7.87659 5.36207 -1.974177 0.710669 -0.438506
Ta 0.04337 6.69689 8.01066 -0.426712 -1.619512 -0.55647
Ta 10.54014 9.26136 7.89857 0.447195 1.282555 0.234867
Ta 2.68344 5.29148 6.55058 -0.713159 0.045261 0.661323
Ta 2.61535 5.26646 9.22004 -0.124682 0.621019 0.504493
Ta 5.22677 5.33996 5.32711 1.047955 -1.01859 -0.083156
Ta 7.93781 8.02504 7.94133 -0.089305 -0.92943 0.174588
Ta 6.58943 7.89688 5.28857 1.109411 0.43459 0.232028
Ta 9.26138 8.02661 5.25779 -0.279333 -0.594174 0.435718
Ta 5.27411 6.62462 8.02195 0.25952 0.675178 -0.659935
Ta 5.30985 9.30627 7.88256 -0.174466 -0.148032 0.732729
Ta 7.99384 5.30652 6.67382 -0.405756 0.105152 -0.448951
Ta 7.89346 5.23521 9.29012 0.232414 0.496659 0.293761
