64
Lattice="10.6000003815 0.0 0.0 0.0 10.6000003815 0.0 0.0 0.0 10.6000003815" Properties=species:S:1:pos:R:3:forces:R:3 energy=-754.317603 stress="19468.33 -58.66 -1082.3899999999999 -58.66 27430.38 -1004.03 -1082.3899999999999 -1004.03 27246.98"
Ta 10.59125 10.59066 0.01705 -0.118141 -0.145557 -0.396942
Ta 2.66355 2.56976 2.70172 0.219448 0.641719 -0.568891
Ta 1.28225 2.66379 0.00075 0.804753 -0.213095 0.055931
Ta 3.97426 2.68113 0.01584 -0.5516 -0.108225 0.097343
Ta 0.04505 1.26937 2.60223 -0.282662 0.758456 0.398993
Ta 0.00712 3.91022 2.683 -0.114677 0.106269 -0.518987
Ta 2.72684 10.52432 1.35392 -0.726917 0.472688 -0.797823
Ta 2.65771 10.58165 3.96524 -0.077037 0.011007 0.534617
Ta 5.24942 0.01366 0.0772 0.258031 -0.214153 -1.051703
Ta 7.94389 2.70276 2.58372 -0.034901 -0.786039 0.846874
Ta 6.56897 2.63238 10.53781 0.820741 0.17553 0.316927
Ta 9.25697 2.71824 0.03107 -0.141547 -0.541217 -0.295988
Ta 5.2811 1.27529 2.68805 0.271914 1.289542 0.153822
Ta 5.37617 4.03137 2.57831 -0.516957 -1.627578 0.618851
Ta 7.91828 10.57185 1.29744 0.139377 0.343182 0.085819
Ta 8.00764 10.55181 3.96506 -0.357185 0.552583 -0.126678
Ta 0.0118 5.32177 10.55352 -0.219509 -0.620513 0.913793
Ta 2.71308 7.96819 2.68219 -0.885887 -0.647834 -0.964512
Ta 1.27335 7.87586 10.56985 0.732069 0.426178 0.624024
Ta 3.92708 7.97831 10.57169 0.265397 -0.23012 0.239314
Ta 10.58762 6.54896 2.70874 0.212568 1.24841 -0.75972
Ta 0.00758 9.30089 2.66982 0.165843 -1.183907 0.012866
Ta 2.61456 5.29021 1.37992 0.244522 -0.196185 -0.940657
Ta 2.62758 5.2723 4.00316 0.333512 0.04522 -0.140777
Ta 10.5382 10.57206 5.35381 0.701913 0.154249 -0.479572
Ta 2.69884 2.72252 7.98246 -0.500546 -0.903317 -0.62617
Ta 1.28389 2.59056 5.26081 0.772419 0.170547 0.489784
Ta 4.01712 2.69857 5.29807 -0.593672 -0.373102 0.08628
Ta 0.0291 1.26201 7.95665 -0.228249 1.225911 0.153224
Ta 0.01323 4.01408 7.91542 -0.130807 -1.640213 -0.047405
Ta 2.6335 0.07389 6.60337 -0.001447 -0.190083 0.039412
Ta 2.62747 0.02086 9.22021 -0.039118 0.087686 0.983273
Ta 5.37311 5.37921 0.00104 -0.959972 -0.838327 0.018335
Ta 7.9566 8.01813 2.65235 0.04766 -0.892332 -0.496011
Ta 6.57317 7.93825 10.57796 0.775293 0.395418 -0.12899
Ta 9.2694 7.88151 10.53712 -0.581566 0.421257 0.44285
Ta 5.22009 6.55334 2.65222 0.48966 1.629995 -0.065174
Ta 5.33963 9.271 2.62989 0.037846 -0.612714 0.384536
Ta 8.02119 5.29672 1.35359 -0.362251 0.224738 -0.893573
Ta 7.94827 5.36972 3.97268 0.104266 -0.263664 0.222094
Ta 5.3297 10.56835 5.37217 -0.099087 0.370321 -0.98499
Ta 7.91532 2.64246 8.00295 0.680096 -0.069447 -0.387023
Ta 6.62199 2.68295 5.3771 0.284007 -0.162815 -0.500346
Ta 9.2514 2.68433 5.35239 -0.118786 -0.470272 -0.408554
Ta 5.32938 1.27255 7.97134 -0.303978 0.286044 0.13783
Ta 5.30418 3.93812 7.93568 0.040155 0.762457 0.076378
Ta 7.95987 10.54938 6.61642 -0.218528 0.46405 0.105442
Ta 7.87538 0.02651 9.23341 0.304713 -0.390603 0.650333
Ta 0.01871 5.23215 5.21873 -0.275057 0.30265 1.189576
Ta 2.58005 8.01801 8.00091 0.903103 -0.811538 -0.942974
Ta 1.35622 7.90716 5.21911 -0.69223 0.095275 0.734107
Ta 3.91664 8.00527 5.23273 1.355059 -0.299637 0.764864
Ta 0.05597 6.54262 7.99991 -0.53468 1.450745 -0.817521
Ta 0.05678 9.22328 7.97883 -0.723123 0.147795 -0.085492
Ta 2.66025 5.35371 6.64491 0.12943 -0.14096 -0.631864
Ta 2.64384 5.23012 9.2296 0.184014 0.70864 1.326423
Ta 5.34418 5.35604 5.295 -0.670333 -0.337693 0.183358
Ta 7.96554 7.96325 7.88581 0.240713 -0.060137 0.461609
Ta 6.67445 7.93954 5.26624 -0.870954 0.115388 0.099246
Ta 9.32253 7.94305 5.27672 -0.121051 -0.177459 -0.101598
Ta 5.37998 6.62136 8.01604 -0.697928 -0.125018 -0.551236
Ta 5.23732 9.22012 7.8725 0.142822 0.596726 0.634521
Ta 7.90914 5.35867 6.63564 0.470037 -0.554497 -0.783277
Ta 7.8945 5.29107 9.20052 0.619005 0.147575 1.411797
