64
Lattice="10.6000003815 0.0 0.0 0.0 10.6000003815 0.0 0.0 0.0 10.6000003815" Properties=species:S:1:pos:R:3:forces:R:3 energy=-754.048643 stress="27656.57 549.87 1164.0900000000001 549.87 24561.93 -1132.43 1164.0900000000001 -1132.43 25335.96"
Ta 10.58466 10.52281 10.54428 0.51911 1.030769 0.289199
Ta 2.58906 2.62515 2.58331 0.980313 0.465455 0.986329
Ta 1.33407 2.72467 0.03386 -0.636192 -0.969554 -0.333663
Ta 3.90797 2.72086 10.53991 1.707244 -0.292948 0.571866
Ta 0.07897 1.2643 2.65645 -0.600839 0.915626 -0.026383
Ta 0.02729 3.96468 2.62566 -0.026464 0.178205 0.595013
Ta 2.71828 0.03582 1.37493 -0.503659 -0.164847 -1.238234
Ta 2.71013 0.01388 3.94029 -0.26741 0.122146 0.391015
Ta 5.24382 0.05221 10.59611 0.985051 -0.524959 -0.239796
Ta 8.00676 2.68277 2.72931 -0.040705 0.112169 -1.076862
Ta 6.67012 2.581 0.05294 -0.795944 0.604015 0.013416
Ta 9.2906 2.70214 10.5277 0.106867 -0.725536 0.830297
Ta 5.31566 1.36303 2.63231 0.204579 -0.39964 0.160289
Ta 5.36545 3.97557 2.63811 -0.35758 0.374857 -0.341338
Ta 7.9635 0.07881 1.30941 -0.122693 -0.323484 0.045005
Ta 8.01171 0.06526 3.99574 -0.213713 -0.382574 -0.612077
Ta 10.5812 5.22205 0.06058 0.340369 1.238874 -0.422064
Ta 2.58751 8.02506 2.67969 0.836087 -0.974582 -0.640712
Ta 1.32816 7.92066 10.55287 0.3286 -0.149546 0.174414
Ta 3.98668 7.91992 10.56445 -0.068023 0.343984 0.387619
Ta 0.00065 6.67904 2.65936 -0.006212 -0.780593 0.078132
Ta 0.05141 9.2904 2.64974 -0.390999 -0.009998 -0.048165
Ta 2.65941 5.21716 1.36289 0.011633 0.757694 -0.318475
Ta 2.67774 5.34503 4.02694 -0.206769 -0.188612 -0.829644
Ta 0.07746 0.06322 5.35824 -0.166456 -0.826729 -0.728653
Ta 2.67942 2.71807 8.01719 -0.311027 -0.729342 -0.903137
Ta 1.37014 2.70616 5.31634 0.189855 -0.02996 -0.111687
Ta 4.04242 2.65384 5.28532 -0.699395 0.065315 0.059883
Ta 10.59566 1.39908 7.95465 0.507488 -1.93197 -0.080117
Ta 10.51853 3.8922 7.91939 1.002489 2.435127 0.268143
Ta 2.65129 0.0155 6.54214 0.056264 0.079221 1.857275
Ta 2.68757 10.53742 9.30663 -0.393454 0.179293 -0.909888
Ta 5.29366 5.33327 10.53757 0.377812 -0.518568 1.064217
Ta 7.98799 8.02663 2.73107 -0.740413 -0.111466 -0.791724
Ta 6.6836 7.95804 10.58871 -0.388073 0.234483 0.294061
Ta 9.35116 7.96667 0.00673 -1.079729 -0.437475 -0.039029
Ta 5.25103 6.63708 2.69902 0.341543 0.027342 -0.389479
Ta 5.25134 9.28648 2.56753 0.545209 0.148316 0.627297
Ta 7.99616 5.36815 1.3789 -0.304224 -0.13761 -0.04399
Ta 8.00478 5.33099 4.04177 -0.265505 0.058703 -0.773223
Ta 5.22309 0.05914 5.36259 1.064104 -0.650463 -0.956514
Ta 8.03289 2.6841 7.99696 -1.569866 -0.680329 -0.545113
Ta 6.70134 2.63641 5.29151 -0.518892 -0.054631 0.294653
Ta 9.34008 2.57975 5.27834 -0.212974 0.581599 0.407505
Ta 5.33316 1.27506 7.87414 0.002254 0.772406 0.627475
Ta 5.282 3.94794 7.95331 0.365483 0.009532 -0.297329
Ta 7.97216 0.0105 6.56218 -0.240616 0.092446 0.728274
Ta 7.98286 10.57054 9.20843 -0.453634 0.391321 0.804177
Ta 10.56331 5.32515 5.33591 0.676252 -0.554028 -0.273297
Ta 2.56725 7.87047 7.92346 0.604213 1.153472 0.121871
Ta 1.36329 7.87424 5.25876 -0.744927 0.627803 0.197684
Ta 3.93049 7.97524 5.31529 0.833261 -0.289114 0.024624
Ta 10.56491 6.65054 7.9509 0.112086 -1.05201 0.24323
Ta 10.52371 9.29522 7.88036 0.696909 0.308497 0.359001
Ta 2.71757 5.32353 6.61689 -0.32555 -0.351803 0.120067
Ta 2.58315 5.3638 9.27005 0.352622 -0.422829 0.437931
Ta 5.33722 5.23801 5.24924 0.119477 0.777101 0.795433
Ta 8.00365 8.00131 7.92453 -0.798715 -0.83498 -0.04946
Ta 6.57048 8.03185 5.31737 0.602944 -0.604804 0.027757
Ta 9.2991 7.92465 5.23581 -0.427437 0.491553 0.583332
Ta 5.29905 6.5928 8.01852 -0.005096 0.425504 -0.692783
Ta 5.2848 9.23686 8.0324 0.055915 0.11712 -0.271961
Ta 7.94377 5.22663 6.66616 -0.103255 0.624955 0.0228
Ta 8.02399 5.3012 9.33589 -0.539595 0.360082 -0.504485
