 # Fcc Cu oriented X=[100], Y=[010], Z=[001].
  
         500  atoms
           1  atom types
 
      0.000000000000      18.075000000000  xlo xhi
      0.000000000000      18.075000000000  ylo yhi
      0.000000000000      18.075000000000  zlo zhi
 
Masses
 
            1   63.54600000             # Cu
 
Atoms # atomic
 
         1    1        0.050887142385       0.007897448691      18.030130172290
         2    1        1.753700203158       1.851129006185      18.025560971415
         3    1       18.024179034108       1.815292653123       1.831236006583
         4    1        1.752350967415       0.053611475491       1.820331995882
         5    1        3.566657162979       0.002758649432       0.016033923926
         6    1        5.427080679179       1.760536282000       0.003484351653
         7    1        3.584049113158       1.816900293082       1.800224901358
         8    1        5.465608405629      18.033925269446       1.818031546193
         9    1        7.247572108950       0.029847210225       0.013956402912
        10    1        9.077267723766       1.847628167248       0.005361836083
        11    1        7.250068125004       1.767038381703       1.859696819005
        12    1        9.000380176917      18.066944952370       1.858499023562
        13    1       10.853101397567       0.019640315908      18.053688359814
        14    1       12.667505916431       1.794339951976      18.072435511128
        15    1       10.798492849852       1.788028833538       1.835178851864
        16    1       12.602980780124       0.049900533183       1.789403641377
        17    1       14.453759212596       0.033979421919      18.059093054064
        18    1       16.224951918412       1.855686073242       0.025805925230
        19    1       14.469124543705       1.803654620234       1.856866409473
        20    1       16.212757722482       0.043932560206       1.820487891822
        21    1       18.069505612432       3.581351452502      18.068284972619
        22    1        1.825579500244       5.474556751119       0.029889197044
        23    1       18.042057468019       5.444083141294       1.858797640104
        24    1        1.862822694196       3.663755785182       1.751890391346
        25    1        3.575728269890       3.636633851674      18.031548358937
        26    1        5.366676084910       5.429594598292       0.005937623977
        27    1        3.613378326280       5.479574153491       1.841134870454
        28    1        5.375606906732       3.649414274685       1.862612372369
        29    1        7.284988730018       3.606588143302       0.047694930292
        30    1        9.061137282567       5.387319216591       0.011755048704
        31    1        7.229014806339       5.439345628401       1.782207014058
        32    1        9.069367244925       3.629756528008       1.754859940962
        33    1       10.850802949066       3.616307034831      18.052987572595
        34    1       12.654553761136       5.440521732658       0.007202611596
        35    1       10.826013652961       5.470999625287       1.839085856807
        36    1       12.599412120003       3.663249146775       1.761012905505
        37    1       14.448139249315       3.658585538121      18.054873365774
        38    1       16.293450364050       5.435584446334      18.037820107207
        39    1       14.440831693847       5.385048788870       1.818574400571
        40    1       16.253580877322       3.659310363836       1.789831370829
        41    1       18.034691288318       7.187375385265      18.018305478930
        42    1        1.821347137109       9.029802725711      18.025022139355
        43    1        0.043641802500       9.030538582009       1.763705739620
        44    1        1.851098038996       7.285258544543       1.801622733008
        45    1        3.654528365653       7.177528209603      18.057618939755
        46    1        5.405002842861       8.999619908146       0.003328376265
        47    1        3.664041662263       9.080733665577       1.855331414352
        48    1        5.424199781463       7.281823652829       1.775598377660
        49    1        7.208938537621       7.262307937984      18.069981272518
        50    1        9.082883312473       8.991244543619      18.063397008169
        51    1        7.192337488118       8.988019524843       1.800223912270
        52    1        9.053707320147       7.208011212741       1.813459673978
        53    1       10.903095718199       7.270707808803       0.053301731602
        54    1       12.657287446714       9.064307710171      18.020699615819
        55    1       10.824778740125       9.085445825512       1.786718383383
        56    1       12.607481760300       7.251233813124       1.752056271436
        57    1       14.440575142604       7.196680763468      18.068850006657
        58    1       16.218649610417       8.982960263588      18.028812773420
        59    1       14.448959650797       8.979731492335       1.844222240594
        60    1       16.311540442266       7.226028165483       1.838553542698
        61    1        0.041564331862      10.887521218706      18.046292350122
        62    1        1.758916272600      12.695731728535       0.040992496694
        63    1       18.062036851190      12.620133771201       1.783556537937
        64    1        1.802624230711      10.876727662093       1.839137477736
        65    1        3.596057188572      10.833900244051      18.037052750825
        66    1        5.369932933375      12.665511246860      18.032839218134
        67    1        3.667589262661      12.670858189383       1.799977724645
        68    1        5.415591296462      10.879143474941       1.854817776525
        69    1        7.276781149580      10.887332754246       0.018265824746
        70    1        8.992200431012      12.613404368203       0.012761078516
        71    1        7.244247758574      12.680008004507       1.844762668734
        72    1        9.080535922528      10.831988554111       1.853413313025
        73    1       10.806103306306      10.880535662407      18.025990473679
        74    1       12.699863912559      12.662866265574       0.051834784041
        75    1       10.829693128026      12.613179268928       1.817206549202
        76    1       12.662336617708      10.883679074738       1.812444008221
        77    1       14.444986304576      10.816047628712       0.036371523821
        78    1       16.304814394579      12.697980971106       0.054623016115
        79    1       14.415181425860      12.611479935686       1.835462474994
        80    1       16.256445600104      10.822921107708       1.846679875387
        81    1       18.062162403273      14.516162225785      18.023017346183
        82    1        1.789233945402      16.252094045190      18.052366434983
        83    1        0.044503860301      16.219807965234       1.794455783030
        84    1        1.771852069976      14.443789446254       1.857868410632
        85    1        3.638543273874      14.454628310799      18.073437324514
        86    1        5.463196708752      16.224997412030       0.041365899814
        87    1        3.654502668194      16.227220774337       1.777947077336
        88    1        5.387360939911      14.482494995261       1.795322538952
        89    1        7.234101053155      14.458318006518       0.010018740042
        90    1        9.051534341955      16.288061998654      18.055073349904
        91    1        7.202000616260      16.281475850351       1.764678571010
        92    1        9.066022907020      14.417316623084       1.752978382997
        93    1       10.809494832866      14.492608795397       0.018476300895
        94    1       12.619964206723      16.268594160618       0.020296805685
        95    1       10.806659940993      16.243832023884       1.843543706879
        96    1       12.639402785887      14.473493761532       1.822081926251
        97    1       14.441181367239      14.422443130626       0.014955044382
        98    1       16.312718427864      16.294673044397       0.046870481469
        99    1       14.471470772627      16.229218820221       1.861941734286
       100    1       16.231834690603      14.406071431447       1.855817797535
       101    1       18.050003782527       0.048958269681       3.656370336168
       102    1        1.842589633390       1.796465389364       3.586354687215
       103    1       18.060006984377       1.856636450138       5.390122815919
       104    1        1.789836745014       0.002485477832       5.454253424080
       105    1        3.637719727243       0.021556261397       3.585878226216
       106    1        5.370180407601       1.786767920841       3.595667967489
       107    1        3.631251636408       1.849934921119       5.444963763242
       108    1        5.422027875718       0.034420599091       5.439783794875
       109    1        7.174895931909      18.026486878468       3.670000367847
       110    1        8.996160404701       1.818864652778       3.577731212572
       111    1        7.258389960683       1.828792477216       5.423567528635
       112    1        9.015194587486      18.062538845020       5.412591304690
       113    1       10.840409048067       0.055544594111       3.575401176010
       114    1       12.617326183904       1.801080396120       3.608617080923
       115    1       10.895086845267       1.798504555527       5.401288219273
       116    1       12.651693731569       0.009770481577       5.455815780057
       117    1       14.506690649611       0.049036317704       3.594877216794
       118    1       16.254305729466       1.757402253419       3.607246696982
       119    1       14.507638141704       1.841556979905       5.417489797266
       120    1       16.294537630993      18.029697216942       5.383494578734
       121    1       18.071021981576       3.558162559508       3.666487131552
       122    1        1.859761016338       5.407887475837       3.604950300331
       123    1       18.048811684643       5.383437222539       5.471653351550
       124    1        1.790071095602       3.658557529254       5.401029638711
       125    1        3.559242777433       3.651501041366       3.575683208514
       126    1        5.438937761151       5.432774294243       3.657359231511
       127    1        3.630884243233       5.416877263568       5.423105946885
       128    1        5.409271667971       3.667615417163       5.454469873273
       129    1        7.186125947569       3.607714277344       3.564148820753
       130    1        8.986765511587       5.451364454047       3.558631585873
       131    1        7.248497577714       5.431846851758       5.367354143496
       132    1        9.019564970915       3.649056667169       5.438879356030
       133    1       10.826886691359       3.622613504379       3.646565551162
       134    1       12.670709038543       5.472155294946       3.612541777248
       135    1       10.842621250111       5.396353126823       5.425449907581
       136    1       12.675617473687       3.662412524441       5.367106277120
       137    1       14.477950208567       3.627379807562       3.600205047297
       138    1       16.300019150027       5.444002827648       3.645618713505
       139    1       14.497077038495       5.403474218795       5.451778483573
       140    1       16.252932428490       3.639487123255       5.410423072268
       141    1       18.052609366384       7.284976253391       3.656512684318
       142    1        1.858036446578       9.046244837535       3.570810350071
       143    1       18.062220121191       8.979964448658       5.383270068560
       144    1        1.786940301020       7.188478822986       5.462040983084
       145    1        3.629795697535       7.258805431947       3.628489078341
       146    1        5.465326323732       9.052077541073       3.652640157267
       147    1        3.667754746905       9.032237110694       5.367925067914
       148    1        5.458654929220       7.184055608674       5.411090503272
       149    1        7.226076184927       7.217075452020       3.610513901368
       150    1        9.048584376232       9.044115573527       3.559549211742
       151    1        7.274796069054       9.011239840883       5.443295096796
       152    1        9.092621658121       7.190940463106       5.389358314890
       153    1       10.890836714107       7.208013162324       3.657486735689
       154    1       12.617965428265       9.001644020359       3.628589957338
       155    1       10.868804796032       9.029418918341       5.375965929934
       156    1       12.600975036310       7.260906413554       5.453431998589
       157    1       14.420755836339       7.217029474947       3.621093402524
       158    1       16.252812390130       9.034219873983       3.595829302558
       159    1       14.496825600557       9.024090762038       5.480006033733
       160    1       16.245210497256       7.201682311796       5.454805975408
       161    1       18.053922126405      10.813562993054       3.631331044481
       162    1        1.772565467454      12.636704548149       3.590443221470
       163    1        0.041941272949      12.677059331775       5.447853471041
       164    1        1.854261756055      10.853880233089       5.441195827983
       165    1        3.621328372146      10.879930273615       3.592719022880
       166    1        5.431235949220      12.611603818252       3.594869336691
       167    1        3.630242408688      12.638688569908       5.377431205618
       168    1        5.383549087802      10.872542588847       5.432768611322
       169    1        7.228504364545      10.828298529417       3.645406041749
       170    1        9.064410638838      12.681068435722       3.605013682491
       171    1        7.268469428967      12.666028693981       5.426000606191
       172    1        9.044661959801      10.802233990926       5.377604720598
       173    1       10.855907139257      10.849805079002       3.584208582422
       174    1       12.689015771455      12.619960378785       3.606040898545
       175    1       10.840311218189      12.673626109793       5.440992588684
       176    1       12.608163712031      10.861017066463       5.435139199122
       177    1       14.426068188449      10.834530391596       3.649288827248
       178    1       16.281574328240      12.675293810591       3.613271947090
       179    1       14.437554444269      12.691374072203       5.478022014901
       180    1       16.252001529749      10.850301067962       5.399378118017
       181    1        0.011778232340      14.461143943155       3.660863660221
       182    1        1.804870429724      16.314302677499       3.565487872269
       183    1        0.023656527105      16.263479946143       5.456749889690
       184    1        1.808735918773      14.425891007747       5.439633101125
       185    1        3.590774374075      14.476106439950       3.605515134654
       186    1        5.367859358737      16.214918421666       3.572173237672
       187    1        3.644791028040      16.237749665288       5.455349562308
       188    1        5.468440343186      14.432294702884       5.386656958900
       189    1        7.222726099229      14.507600954431       3.581748774272
       190    1        9.083633729731      16.223930157997       3.569325831444
       191    1        7.228913296537      16.255754842204       5.367647211167
       192    1        8.989812931102      14.445656806520       5.459491523043
       193    1       10.903199468827      14.488232325504       3.646785907728
       194    1       12.680561394461      16.283957312285       3.643525832618
       195    1       10.816884494160      16.289025094454       5.448651886365
       196    1       12.607664231164      14.402321988452       5.443973965807
       197    1       14.430557504268      14.433929860030       3.638564194291
       198    1       16.280525117709      16.258774815408       3.591114798446
       199    1       14.515831879137      16.239831555760       5.475690493769
       200    1       16.256189541717      14.430615011002       5.421795731960
       201    1       18.025406266599      18.028570191076       7.185922228678
       202    1        1.849655663956       1.791944357051       7.177329263065
       203    1        0.013502935508       1.833693951674       9.080327110396
       204    1        1.784576353381      18.060233290448       9.056053526392
       205    1        3.614653899615      18.036998209914       7.209271698152
       206    1        5.424284064867       1.776363273955       7.247541630379
       207    1        3.626945732406       1.858293283883       9.082324019387
       208    1        5.390367695164      18.066771122605       9.031518816347
       209    1        7.199776502020      18.060540579673       7.269140039682
       210    1        8.998745384364       1.777221029589       7.222225274567
       211    1        7.209857567549       1.792514520926       9.015867888937
       212    1        9.036062230039      18.053372759034       9.038326308096
       213    1       10.890775799267      18.068472523181       7.270073996588
       214    1       12.598726096149       1.808206403240       7.268198574233
       215    1       10.852808280411       1.826207632180       8.998357280102
       216    1       12.676776903754      18.031516631635       9.085721542402
       217    1       14.411393758632      18.029958766580       7.209798887754
       218    1       16.293876027561       1.750765924779       7.214762142519
       219    1       14.458910000789       1.795485245168       9.013368489436
       220    1       16.230625302442      18.046020282499       8.982952612356
       221    1       18.035841803801       3.656932222899       7.193828729167
       222    1        1.839048396737       5.424785298302       7.220777935348
       223    1       18.027896385472       5.464148870018       9.037301147280
       224    1        1.807894358244       3.645327777705       9.001954963099
       225    1        3.640716631901       3.666501398400       7.205875689124
       226    1        5.376600754110       5.440235471081       7.241783618477
       227    1        3.569528791468       5.444968638322       9.085442442215
       228    1        5.455456225533       3.657389220252       8.984829751485
       229    1        7.207325115344       3.601565163891       7.203198695147
       230    1        9.018368565144       5.383352541104       7.251004062753
       231    1        7.194879014763       5.395772100768       9.031847224257
       232    1        9.041726449097       3.647858453502       9.092165007624
       233    1       10.834982723668       3.657819539137       7.202781125652
       234    1       12.662909916912       5.413040179065       7.184568955411
       235    1       10.898118008467       5.449322839282       9.092661804555
       236    1       12.599984885064       3.573877528663       9.058213227552
       237    1       14.437171101368       3.586919288142       7.183825548169
       238    1       16.212557579950       5.455330539917       7.208724750019
       239    1       14.472792965760       5.441658923018       8.996776899907
       240    1       16.240218594434       3.650029053465       9.012464830052
       241    1        0.034870959828       7.216349911627       7.174372865704
       242    1        1.760064071702       9.052901887782       7.217951809128
       243    1        0.017486457137       9.041070010152       8.991328588469
       244    1        1.774519693303       7.217636814031       9.034077916285
       245    1        3.577471177695       7.190732901931       7.257384839950
       246    1        5.409935769712       9.061137715886       7.259625820840
       247    1        3.590146608867       9.066091493287       9.014607861636
       248    1        5.420651383896       7.200478752198       8.984782084324
       249    1        7.211969289994       7.178309375327       7.183690295727
       250    1        9.057330362834       8.993392359626       7.179987293067
       251    1        7.210106763252       9.035799200154       9.081607231252
       252    1        9.055191850269       7.241334785808       9.026903795750
       253    1       10.857085244038       7.261016031178       7.244590978708
       254    1       12.646329003524       8.996829786592       7.241245873302
       255    1       10.883644613971       9.081720557716       9.013075497725
       256    1       12.707510049413       7.204104492712       9.092841343641
       257    1       14.492646768430       7.218756958032       7.195445274938
       258    1       16.323747316744       9.024882126973       7.276806288144
       259    1       14.410483861624       9.067389912944       9.090132750916
       260    1       16.244931170379       7.203617044152       9.079048363254
       261    1       18.023017693127      10.873879756230       7.184409995118
       262    1        1.788151867371      12.704520823411       7.222003651126
       263    1        0.010478270554      12.638422111523       9.055265186002
       264    1        1.852612321800      10.826300781266       9.058731638874
       265    1        3.614219667939      10.798089340852       7.221867799606
       266    1        5.398559340232      12.616331253919       7.188311061919
       267    1        3.578418543586      12.655992368349       9.003438892893
       268    1        5.386582801370      10.826043969238       9.005133558963
       269    1        7.187324084978      10.850512182973       7.244781880604
       270    1        9.059794615379      12.675807544977       7.183027150521
       271    1        7.265676973886      12.676861240969       8.990315350959
       272    1        9.043926048082      10.894521470551       9.022472428458
       273    1       10.851152473194      10.851270409768       7.206722775718
       274    1       12.671509036168      12.660585645004       7.190956138227
       275    1       10.811605132666      12.708390882406       8.999536206945
       276    1       12.598170408416      10.872188782977       9.030832492989
       277    1       14.497058509041      10.831004601264       7.211526686462
       278    1       16.313144079248      12.603164090229       7.249932384397
       279    1       14.425917153246      12.666974289663       9.022656688015
       280    1       16.323817428096      10.844856367345       9.003389727255
       281    1        0.015224899223      14.474219588605       7.181306223275
       282    1        1.828773543830      16.265441379593       7.275190047457
       283    1        0.021456424120      16.280353510420       9.036607936193
       284    1        1.778991146623      14.475823638020       9.056758266986
       285    1        3.659620651818      14.461880574033       7.282444534626
       286    1        5.411182591962      16.261324401179       7.198328184924
       287    1        3.601841883768      16.267594142778       8.996210967922
       288    1        5.386837139671      14.490132564866       9.006706902984
       289    1        7.237412554437      14.512513535433       7.231843405466
       290    1        9.075929370483      16.233796175929       7.257042404253
       291    1        7.232364564476      16.282345210706       9.068326718138
       292    1        9.014099835071      14.408037764276       9.015003177951
       293    1       10.857960084458      14.416391082363       7.184913355110
       294    1       12.676996333409      16.309001965991       7.239298784880
       295    1       10.866156143146      16.287478622674       9.083484148629
       296    1       12.681817251651      14.451463113892       9.082059294266
       297    1       14.457724290657      14.485211414394       7.209448878537
       298    1       16.239694188511      16.221636919985       7.199042721476
       299    1       14.437852898497      16.224818823498       9.005138222821
       300    1       16.270037357748      14.480858408693       9.002139483737
       301    1        0.002400749542      18.056695960625      10.842447013216
       302    1        1.759529203320       1.762304095549      10.879784215680
       303    1       18.041043844278       1.832313798779      12.673240171933
       304    1        1.865399447843       0.007818709661      12.612923670576
       305    1        3.580069032474      18.063311362594      10.816092123090
       306    1        5.388741825784       1.780152267789      10.896896644795
       307    1        3.602028649357       1.757102868289      12.708275891301
       308    1        5.409666148287       0.016198856837      12.665073546235
       309    1        7.174360151392      18.051227446511      10.849379858495
       310    1        9.042238101551       1.841320659539      10.796741345347
       311    1        7.231922858460       1.765813859210      12.598830338378
       312    1        9.013283367593      18.071647985142      12.700199136455
       313    1       10.820316562474      18.031748223385      10.876962878495
       314    1       12.608413608041       1.788723609329      10.882629053756
       315    1       10.898046274263       1.826792804897      12.661265276765
       316    1       12.605948016065      18.027984399302      12.705006970822
       317    1       14.487517770280      18.042362126802      10.803356715689
       318    1       16.240949127684       1.796958831640      10.787952306933
       319    1       14.439476463592       1.789547608590      12.604487569608
       320    1       16.309471276608       0.035690656639      12.679538496068
       321    1        0.033965551551       3.634970892806      10.820865493574
       322    1        1.845851158082       5.458596795256      10.792772023277
       323    1       18.025497408158       5.431377495274      12.645572676837
       324    1        1.771511347482       3.657224572441      12.708753350551
       325    1        3.578735808992       3.606017567474      10.819691668021
       326    1        5.430330023786       5.432597710810      10.887631392977
       327    1        3.605764008071       5.373041752807      12.625235602877
       328    1        5.465639646044       3.642145105448      12.668942300826
       329    1        7.259732324457       3.663345992264      10.829725578146
       330    1        9.052508737543       5.457674286080      10.839431160397
       331    1        7.203309984342       5.417058870826      12.685495564717
       332    1        9.076305905258       3.654304328085      12.616839911215
       333    1       10.871420510330       3.630537292342      10.886955844750
       334    1       12.668816763987       5.435786304628      10.897108176644
       335    1       10.850879496229       5.423206067342      12.622908874676
       336    1       12.682967865129       3.615465435042      12.603875888394
       337    1       14.424407519238       3.557293951106      10.851224481826
       338    1       16.241983005861       5.397176737217      10.890275529706
       339    1       14.484324925100       5.446609601438      12.706903372476
       340    1       16.215146558374       3.588563984481      12.601103634944
       341    1       18.071434312058       7.203823092234      10.792101970304
       342    1        1.824459946183       8.987018781272      10.795395399547
       343    1       18.057329417900       9.064753930099      12.679350730006
       344    1        1.768966489142       7.211471534155      12.675115937665
       345    1        3.597655178867       7.284149995746      10.849003209738
       346    1        5.374327488454       9.018451514644      10.808811408395
       347    1        3.599862311812       9.058892029288      12.624831543215
       348    1        5.378600215304       7.273887149302      12.707093057864
       349    1        7.241404762180       7.217908417539      10.847043547902
       350    1        9.090740967522       9.043891035690      10.846143655419
       351    1        7.259856244225       8.985476333483      12.709281700969
       352    1        9.024896788312       7.218016673575      12.655336985159
       353    1       10.831263756119       7.198721065044      10.886717494856
       354    1       12.703181868366       9.043963745437      10.875064064263
       355    1       10.790172051992       8.992962829171      12.602700787423
       356    1       12.681348116089       7.263590085060      12.612731486244
       357    1       14.423768757219       7.212159156771      10.795798204874
       358    1       16.319251196365       9.067268749281      10.836085355166
       359    1       14.408927492608       9.090289151957      12.704983703483
       360    1       16.317816979856       7.184898865923      12.653005286043
       361    1       18.071954535322      10.889536877702      10.899462542295
       362    1        1.838738530210      12.636076995940      10.838826354265
       363    1        0.036284573659      12.619907172598      12.705023544731
       364    1        1.791942956580      10.883733146437      12.607205206273
       365    1        3.586299044344      10.831564358737      10.820519190135
       366    1        5.459164569583      12.694444522618      10.810540757189
       367    1        3.561418603752      12.679290352955      12.618522719104
       368    1        5.381993974235      10.848592457389      12.631235628351
       369    1        7.284414977288      10.794406690369      10.823216437669
       370    1        9.048415768067      12.698592592078      10.801175099185
       371    1        7.254985617021      12.690499817327      12.610240578162
       372    1        8.991860159383      10.799868789812      12.694691449940
       373    1       10.843285383643      10.888306702782      10.833683867421
       374    1       12.681920632135      12.631715348805      10.892994962906
       375    1       10.804480708370      12.671130320419      12.615406365401
       376    1       12.697199103480      10.834860456369      12.636830574712
       377    1       14.491873785463      10.886890811130      10.833718346801
       378    1       16.222233564820      12.688831626806      10.853293898916
       379    1       14.480890496530      12.651105173492      12.660125957924
       380    1       16.265260256247      10.856045820716      12.684594774888
       381    1       18.066617792698      14.422902672325      10.832150455806
       382    1        1.791628791603      16.225659582889      10.859541810475
       383    1        0.036991617843      16.252257273699      12.660009457024
       384    1        1.768814687988      14.427452267594      12.607611341120
       385    1        3.614712550439      14.503895395420      10.831634403314
       386    1        5.430304907397      16.256367380566      10.840589634684
       387    1        3.642254461137      16.277735220650      12.709136158797
       388    1        5.373637474657      14.447990067385      12.681762420437
       389    1        7.258525372483      14.478707946266      10.849798947036
       390    1        9.078291054595      16.299030429919      10.865186196415
       391    1        7.190799441898      16.248882705312      12.622793680073
       392    1        9.044792618173      14.469091767999      12.655474832180
       393    1       10.848385587564      14.500182131590      10.794644937901
       394    1       12.608979719412      16.311665953254      10.816517085271
       395    1       10.836483778372      16.248956828303      12.634931313084
       396    1       12.672267672760      14.447997214191      12.687754597868
       397    1       14.418155748246      14.419800091043      10.821413434899
       398    1       16.318583191303      16.279624026630      10.836219852712
       399    1       14.510325615458      16.215799545709      12.708746572324
       400    1       16.293915267864      14.429136583919      12.640234074314
       401    1       18.037176669387      18.031949229471      14.405815230413
       402    1        1.859551210540       1.779699713281      14.461320136401
       403    1       18.026648590610       1.852147675888      16.225050075072
       404    1        1.820488424624      18.040192758685      16.274438680866
       405    1        3.571941136615       0.030432658663      14.481785996074
       406    1        5.477193859949       1.784005988940      14.435945778543
       407    1        3.571393739789       1.777346689252      16.246016401843
       408    1        5.428748754964      18.044552210385      16.249940077172
       409    1        7.213060274971       0.036718397035      14.427470296012
       410    1        9.031324107054       1.813423019848      14.502577375225
       411    1        7.245032952942       1.763569431439      16.254268299108
       412    1        9.064056590870       0.005842984595      16.314593005288
       413    1       10.835115280170      18.055078057987      14.482839297080
       414    1       12.623377833132       1.758569053219      14.472071964330
       415    1       10.817226113514       1.784543713961      16.278140383426
       416    1       12.651362618780      18.038137754317      16.321422638480
       417    1       14.413436352462       0.051942694829      14.408382882405
       418    1       16.299699799573       1.853380303477      14.488021682577
       419    1       14.487719086266       1.840572099741      16.318484559574
       420    1       16.324469893764      18.037890375888      16.258425979971
       421    1        0.013373365782       3.655896765322      14.463684878121
       422    1        1.810209329832       5.477689356051      14.459561093688
       423    1       18.033551625813       5.449441211641      16.239621791098
       424    1        1.831152179429       3.658121386299      16.219281304937
       425    1        3.627666841425       3.667287755898      14.415816716778
       426    1        5.432591608930       5.364366774735      14.469243535212
       427    1        3.667570133842       5.433590021409      16.305636183369
       428    1        5.458400933917       3.661385469566      16.259231036901
       429    1        7.280765761380       3.585593637211      14.486099808208
       430    1        9.032693412617       5.378710753831      14.429423853532
       431    1        7.177539405938       5.377772409394      16.239611793216
       432    1        9.051163362027       3.671062322209      16.261537436046
       433    1       10.889012197545       3.578195126847      14.455644959966
       434    1       12.604288282621       5.430755127687      14.409510754367
       435    1       10.868800268797       5.431519479173      16.300336302783
       436    1       12.681307964235       3.557730042404      16.243486427941
       437    1       14.470659144508       3.571365643280      14.451538278076
       438    1       16.272738533559       5.451555512492      14.513045016073
       439    1       14.438380193497       5.430920337947      16.298004258113
       440    1       16.215139772852       3.618040829148      16.282927571496
       441    1       18.027298004194       7.186784856772      14.493726617014
       442    1        1.826579814645       9.082478236199      14.510133200868
       443    1        0.017623892185       9.054500198223      16.275794236122
       444    1        1.864195617116       7.200330749246      16.265798306675
       445    1        3.566096548634       7.240178740814      14.406822373937
       446    1        5.386856068755       9.033983013810      14.442352406515
       447    1        3.588478603570       9.053344783516      16.320145988221
       448    1        5.448071687560       7.249564969540      16.247923692248
       449    1        7.173623743416       7.242413909465      14.430342316094
       450    1        9.049682645982       8.980683453351      14.440524134515
       451    1        7.288021952531       8.982704674424      16.275522590573
       452    1        9.084522985853       7.281964991756      16.261965307401
       453    1       10.901141659374       7.284592566548      14.506564947997
       454    1       12.618071443591       9.090100957241      14.507685069317
       455    1       10.819318447434       9.038125568416      16.322577089337
       456    1       12.610107488408       7.182067120092      16.248965323578
       457    1       14.454560288397       7.242715002707      14.425201078875
       458    1       16.233395747334       9.093968059137      14.457077647921
       459    1       14.471155253621       9.064378212537      16.231577338815
       460    1       16.293624362622       7.185452619438      16.321574623084
       461    1       18.071069851170      10.856760044539      14.408557278513
       462    1        1.763228272247      12.629255486803      14.493417964263
       463    1       18.029489214197      12.664204328697      16.314292476302
       464    1        1.828369333015      10.881576047636      16.275236130494
       465    1        3.560616203953      10.872796016837      14.483277568978
       466    1        5.427691452430      12.688553201183      14.502693254950
       467    1        3.601031966239      12.689800022416      16.225522473599
       468    1        5.383857482390      10.788192324467      16.244423171933
       469    1        7.198836978704      10.884593537535      14.413686482172
       470    1        9.092020190699      12.663759576240      14.429299219624
       471    1        7.235845072689      12.606903524570      16.289088241131
       472    1        9.093499164790      10.864018392796      16.211146154717
       473    1       10.851376957037      10.882425873702      14.491376051483
       474    1       12.689431881746      12.594481953912      14.420809449484
       475    1       10.801904808697      12.706139336109      16.312648084049
       476    1       12.626479887872      10.851490817914      16.268092853309
       477    1       14.482171290705      10.807783494184      14.411179797204
       478    1       16.236511420758      12.663920978767      14.501219688893
       479    1       14.421575252977      12.672943045375      16.298797317475
       480    1       16.306695103064      10.841453630273      16.232494044885
       481    1        0.011913820241      14.441880019696      14.418345626653
       482    1        1.793085705459      16.308285389636      14.496260947542
       483    1       18.033199783391      16.285355360847      16.306231586987
       484    1        1.799046299816      14.471934806365      16.274815435435
       485    1        3.566789897257      14.488179937734      14.487499623733
       486    1        5.412678865599      16.253273595090      14.494472453921
       487    1        3.610688747972      16.216137130391      16.231809613392
       488    1        5.423552246381      14.486948024152      16.294889108250
       489    1        7.228353859917      14.469564704395      14.427911021017
       490    1        8.985810621501      16.228467255493      14.471529201987
       491    1        7.202269346916      16.290288545731      16.226059037234
       492    1        9.081193520697      14.496915522049      16.222181387127
       493    1       10.824112909882      14.430425395724      14.467058669776
       494    1       12.652766422338      16.320157220948      14.462060667731
       495    1       10.862700914516      16.313675098264      16.304007808828
       496    1       12.627926110276      14.413758007719      16.213795726654
       497    1       14.477813825593      14.451382715220      14.482834511145
       498    1       16.249344732117      16.215071317757      14.485492516290
       499    1       14.453292051212      16.308633292744      16.304095315827
       500    1       16.301797992273      14.488531329699      16.222325157196
