864
Lattice="2.4468000000000004e+01 0 0 0 2.4468000000000004e+01 0 0 0 2.4468000000000004e+01" Properties=species:S:1:pos:R:3:velo:R:3
Au 0.10000000000000001 0.070000000000000007 0.050000000000000003 0.63658434036515399 -0.12349853488677739 -0.010398775879617198
Au 2.1390000000000002 2.109 0.050000000000000003 2.4350576551449676 -0.34008366537288026 -1.7217135740533642
Au 2.1390000000000002 0.070000000000000007 2.089 -1.8472285861810362 -1.2712154379453042 -1.4170617584207772
Au 0.10000000000000001 2.109 2.089 -1.4942314864231778 1.5063897571561655 -0.3202670015931719
Au 4.1779999999999999 0.070000000000000007 0.050000000000000003 2.0950954184897901 -0.86823153551475052 -0.59221913904825196
Au 6.2170000000000005 2.109 0.050000000000000003 1.3756613690316508 -0.64899941224204749 -2.5707963930655477
Au 6.2170000000000005 0.070000000000000007 2.089 1.0842212164427785 2.488945625261402 -1.5550870461126474
Au 4.1779999999999999 2.109 2.089 0.12899653286885943 0.61746907279554974 -2.1339050090735827
Au 8.2560000000000002 0.070000000000000007 0.050000000000000003 -1.6503627221994779 0.78706635686563131 1.4083759490484171
Au 10.295 2.109 0.050000000000000003 0.98492865691002107 0.36357750292970642 -0.43582554519746836
Au 10.295 0.070000000000000007 2.089 -0.25752171545813629 -0.80774540609006651 1.4636438658216782
Au 8.2560000000000002 2.109 2.089 -0.042454855885654855 -1.1916133108075841 1.118552304323905
Au 12.334000000000001 0.070000000000000007 0.050000000000000003 1.5339302135532904 -1.3297102501060849 -0.76514415163012095
Au 14.373000000000001 2.109 0.050000000000000003 -1.1687231050359275 0.083966137983433192 0.062330936937356474
Au 14.373000000000001 0.070000000000000007 2.089 0.70060027049068208 -0.43960506444574288 0.070978316442964956
Au 12.334000000000001 2.109 2.089 -0.23788927826172918 -0.33125847889380311 -1.5286809548022156
Au 16.412000000000003 0.070000000000000007 0.050000000000000003 0.087174816682342574 -0.045446587304821817 1.2262083656890621
Au 18.451000000000004 2.109 0.050000000000000003 -0.68473770850792803 -0.1009566538695625 0.50408509986298733
Au 18.451000000000004 0.070000000000000007 2.089 -1.0754397780742926 1.9463146099873285 -1.0387088018540622
Au 16.412000000000003 2.109 2.089 0.35496076207130578 0.84523612362136824 -1.9502805477525871
Au 20.490000000000002 0.070000000000000007 0.050000000000000003 0.30579046767673601 -1.283628935563748 0.2810050620097217
Au 22.529000000000003 2.109 0.050000000000000003 -1.7192747227501102 0.79977403997600238 0.078378088627376191
Au 22.529000000000003 0.070000000000000007 2.089 1.4417891952183557 -0.60988307807648923 -0.55196908372717501
Au 20.490000000000002 2.109 2.089 3.3789478085882898 0.62966795376985674 -1.107858150943519
Au 0.10000000000000001 4.1480000000000006 0.050000000000000003 -0.24570914531822366 -1.1953227371058204 0.65830004641947903
Au 2.1390000000000002 6.1870000000000012 0.050000000000000003 -0.70845807612348766 -1.1474748191141031 0.44869355047667653
Au 2.1390000000000002 4.1480000000000006 2.089 -1.926671408187014 -0.78853804979430286 -0.43520667072005564
Au 0.10000000000000001 6.1870000000000012 2.089 -1.4647087881166418 -0.52885241555302032 0.91755532044476118
Au 4.1779999999999999 4.1480000000000006 0.050000000000000003 -0.34785686994508558 0.51776394379107182 -2.2459179107560101
Au 6.2170000000000005 6.1870000000000012 0.050000000000000003 -2.2738076411189061 0.92760328181323659 -0.063315835170396684
Au 6.2170000000000005 4.1480000000000006 2.089 -0.67358829397016906 -0.46691807961143716 -1.5651261829286323
Au 4.1779999999999999 6.1870000000000012 2.089 -0.41719227040632884 -1.7096336105857077 0.67282105397760794
Au 8.2560000000000002 4.1480000000000006 0.050000000000000003 -1.2368475691384206 0.53122458866371158 -0.12583672663337075
Au 10.295 6.1870000000000012 0.050000000000000003 0.74112550079384987 -0.22628938418173117 0.64190873125216441
Au 10.295 4.1480000000000006 2.089 -0.82657874810354259 0.38216162223986244 -0.39928492628176926
Au 8.2560000000000002 6.1870000000000012 2.089 0.53640490746364311 2.2846394891858415 -0.76838885568898774
Au 12.334000000000001 4.1480000000000006 0.050000000000000003 1.2855570328334887 -0.51539381128392814 1.6355438678088807
Au 14.373000000000001 6.1870000000000012 0.050000000000000003 -0.56020621300480533 -1.0455276388519916 0.94844923297953787
Au 14.373000000000001 4.1480000000000006 2.089 1.2511951448024539 -0.55981990847623075 1.6659527971182555
Au 12.334000000000001 6.1870000000000012 2.089 0.90280826414883242 -0.26596322028258129 -1.1510634121172529
Au 16.412000000000003 4.1480000000000006 0.050000000000000003 0.027650323701867565 -1.9219208795698015 0.15557742211900727
Au 18.451000000000004 6.1870000000000012 0.050000000000000003 -0.72982435978980753 -1.6963546103087506 0.088139200337675402
Au 18.451000000000004 4.1480000000000006 2.089 0.42212622729595706 -1.8623029669025961 -0.093525511024815683
Au 16.412000000000003 6.1870000000000012 2.089 -1.6868562677818599 0.10458291357944494 2.01240138782252
Au 20.490000000000002 4.1480000000000006 0.050000000000000003 -1.6148220494164074 -0.50359867340316644 1.5608485564393773
Au 22.529000000000003 6.1870000000000012 0.050000000000000003 0.45423454475431185 -0.95315788413530189 -0.86698897628294136
Au 22.529000000000003 4.1480000000000006 2.089 0.66571910025383374 -0.96969244065373372 0.079492623925584024
Au 20.490000000000002 6.1870000000000012 2.089 -1.3311835324327495 -1.008169082031718 -0.98983659787663658
Au 0.10000000000000001 8.2260000000000009 0.050000000000000003 1.2862581531356438 0.068765580677653995 1.7880338057307386
Au 2.1390000000000002 10.265000000000001 0.050000000000000003 -1.3402690383379827 -0.38543180257833287 0.83529845442300044
Au 2.1390000000000002 8.2260000000000009 2.089 0.91197570024598651 0.19822912629192674 -0.012189316270260013
Au 0.10000000000000001 10.265000000000001 2.089 -1.0646383278076008 0.19513665240679801 -0.10578380411066328
Au 4.1779999999999999 8.2260000000000009 0.050000000000000003 2.5536365159353016 -0.2189958996580296 -0.070645999099257714
Au 6.2170000000000005 10.265000000000001 0.050000000000000003 1.2813957881321705 -0.37113834669100637 0.92230924955445648
Au 6.2170000000000005 8.2260000000000009 2.089 0.16170179581681154 -0.47279412055039782 2.4184805851470887
Au 4.1779999999999999 10.265000000000001 2.089 -0.5192308281131246 0.19996328316093767 -0.70373386748155109
Au 8.2560000000000002 8.2260000000000009 0.050000000000000003 0.094858080006892817 0.92505376653895477 -0.038456237947719539
Au 10.295 10.265000000000001 0.050000000000000003 0.85393344106180535 2.6340196555145825 1.2248840965569863
Au 10.295 8.2260000000000009 2.089 0.89916030281095549 0.94736438726099448 0.94601793711253668
Au 8.2560000000000002 10.265000000000001 2.089 1.3039310521300946 -1.3844582931978271 -0.43953338371739697
Au 12.334000000000001 8.2260000000000009 0.050000000000000003 -1.1681892099922251 -0.52553470273059744 0.57253523467481027
Au 14.373000000000001 10.265000000000001 0.050000000000000003 -0.67112733613984965 0.57984219550382721 -1.1355364126475527
Au 14.373000000000001 8.2260000000000009 2.089 1.2528532256623777 0.11224040264579088 0.31644947141833912
Au 12.334000000000001 10.265000000000001 2.089 -1.4337940966745106 -0.76452008219322409 0.21599826954102527
Au 16.412000000000003 8.2260000000000009 0.050000000000000003 1.6448979091367615 1.277984374474664 1.3973199720787419
Au 18.451000000000004 10.265000000000001 0.050000000000000003 0.68402844412904185 0.75405280051518775 -0.021879400375678159
Au 18.451000000000004 8.2260000000000009 2.089 -0.35402523047085349 -1.828899090138441 2.1424871988349747
Au 16.412000000000003 10.265000000000001 2.089 -2.9689865544597565 -1.2024617021948456 -0.93472243165514524
Au 20.490000000000002 8.2260000000000009 0.050000000000000003 -0.60941649881939119 -0.58608927424363144 1.7648966815181617
Au 22.529000000000003 10.265000000000001 0.050000000000000003 1.7043714975656192 0.79113105392401029 -0.17100632624860707
Au 22.529000000000003 8.2260000000000009 2.089 -0.28541032198430621 -1.9382692416243612 1.0033785223004628
Au 20.490000000000002 10.265000000000001 2.089 -0.082015532709724878 -1.211344257680786 1.1843154625227068
Au 0.10000000000000001 12.304000000000002 0.050000000000000003 0.93870209728892096 0.21230557698215069 0.17054779250536947
Au 2.1390000000000002 14.343000000000002 0.050000000000000003 -0.45041566621392098 -0.17973347320505764 -3.1992380904288624
Au 2.1390000000000002 12.304000000000002 2.089 -0.86554953142253066 -1.2821443659478546 -0.81183092861103168
Au 0.10000000000000001 14.343000000000002 2.089 0.85722725849284787 0.66586258470252635 -1.0636309366143297
Au 4.1779999999999999 12.304000000000002 0.050000000000000003 0.37439169135407585 -0.013967783509500672 0.49372831696661529
Au 6.2170000000000005 14.343000000000002 0.050000000000000003 -0.22710103090446374 0.021212925508541834 -0.11808589099886541
Au 6.2170000000000005 12.304000000000002 2.089 -2.2142621839450185 -0.73137239961587808 -0.68552760939879631
Au 4.1779999999999999 14.343000000000002 2.089 2.4125797131972639 0.39600496067415475 -1.8873312617690603
Au 8.2560000000000002 12.304000000000002 0.050000000000000003 1.9527052200842936 0.81776352812038733 -0.84745371586237028
Au 10.295 14.343000000000002 0.050000000000000003 -0.79366649568801173 -1.0208622151476472 0.45447398572047676
Au 10.295 12.304000000000002 2.089 1.5151638843447708 -0.5511705052045266 1.0598583739385647
Au 8.2560000000000002 14.343000000000002 2.089 -1.6766762394270425 -0.016966463489679701 0.25890154424215162
Au 12.334000000000001 12.304000000000002 0.050000000000000003 -1.2620200551254459 0.46214161711649354 1.8724118624923374
Au 14.373000000000001 14.343000000000002 0.050000000000000003 0.138337358413366 0.060992527253762648 -0.049794842223515462
Au 14.373000000000001 12.304000000000002 2.089 -0.42507941408039984 0.1652198924396038 0.57925883097377573
Au 12.334000000000001 14.343000000000002 2.089 -0.51877901812989013 -1.1364436837468768 -0.042193490468110072
Au 16.412000000000003 12.304000000000002 0.050000000000000003 0.67956809489052938 0.62558777636473017 0.58938896946167718
Au 18.451000000000004 14.343000000000002 0.050000000000000003 0.3726735730061973 0.55050673975722331 -1.8508043151090985
Au 18.451000000000004 12.304000000000002 2.089 -1.4807846637721525 -0.11191100687632274 0.85690861118863526
Au 16.412000000000003 14.343000000000002 2.089 0.2542864304117709 1.5305810404129943 -0.36892713289154089
Au 20.490000000000002 12.304000000000002 0.050000000000000003 1.6595702318522216 1.7697856753459118 0.88436908051901819
Au 22.529000000000003 14.343000000000002 0.050000000000000003 0.15128453750688903 -0.43264251767763534 0.15186880031497357
Au 22.529000000000003 12.304000000000002 2.089 0.17327842938890953 0.7044789771070129 0.53147330082900179
Au 20.490000000000002 14.343000000000002 2.089 -0.31378357250284605 0.25319795803363965 1.0314093345600448
Au 0.10000000000000001 16.382000000000001 0.050000000000000003 -0.91256720529491464 0.26030483726557413 -0.15434545796704263
Au 2.1390000000000002 18.421000000000003 0.050000000000000003 1.7961619489420368 0.062616424160850781 0.7659202388768267
Au 2.1390000000000002 16.382000000000001 2.089 0.4190685951678999 1.7798663972981914 0.14578559179418768
Au 0.10000000000000001 18.421000000000003 2.089 -0.080054814150012421 0.35702261692619569 0.76351811573266282
Au 4.1779999999999999 16.382000000000001 0.050000000000000003 1.0742507604339293 0.91414125472557017 -0.47661943961324493
Au 6.2170000000000005 18.421000000000003 0.050000000000000003 0.54979781654719262 1.8760842859626614 -0.057309814022547957
Au 6.2170000000000005 16.382000000000001 2.089 -0.26965671626555648 1.3209971324994958 2.1383676696844316
Au 4.1779999999999999 18.421000000000003 2.089 0.27845558542854165 0.70819826430135802 -0.5298683657481017
Au 8.2560000000000002 16.382000000000001 0.050000000000000003 -1.5468218741394284 -0.56603936451488235 0.64166558895626746
Au 10.295 18.421000000000003 0.050000000000000003 1.4889610723986699 1.9854566491915917 -0.52578880619342994
Au 10.295 16.382000000000001 2.089 0.1581966261976645 -1.7244500835338221 0.26417103734642083
Au 8.2560000000000002 18.421000000000003 2.089 -2.360298258315745 0.76252946382065434 1.1895669792422916
Au 12.334000000000001 16.382000000000001 0.050000000000000003 0.61202360776278586 -0.91191210436777626 1.6093209116492198
Au 14.373000000000001 18.421000000000003 0.050000000000000003 1.7946845744729452 -0.56654921949929771 0.34431591427779079
Au 14.373000000000001 16.382000000000001 2.089 1.8199736500656714 1.1243557296402242 -0.094864601635978762
Au 12.334000000000001 18.421000000000003 2.089 1.9225117373958016 -0.76465342394617486 -0.21940156843648653
Au 16.412000000000003 16.382000000000001 0.050000000000000003 -0.28994817468598127 -1.8366209043688717 1.535456893110023
Au 18.451000000000004 18.421000000000003 0.050000000000000003 -1.5396898344086165 -0.63860015426657346 1.2260312162896914
Au 18.451000000000004 16.382000000000001 2.089 -0.15945890874334434 1.592162267944047 -1.2870081888280549
Au 16.412000000000003 18.421000000000003 2.089 0.25849896133169825 2.3063459869419396 -0.85876352504443154
Au 20.490000000000002 16.382000000000001 0.050000000000000003 0.81272980650994342 0.59042765564253841 0.36017134818029956
Au 22.529000000000003 18.421000000000003 0.050000000000000003 1.1603390310897024 -0.036785263827609077 0.50263502536044158
Au 22.529000000000003 16.382000000000001 2.089 0.12727728081818965 -0.84018127670862308 0.54752950246213217
Au 20.490000000000002 18.421000000000003 2.089 -1.5497081036699072 2.2224880301849543 -0.048450880741673447
Au 0.10000000000000001 20.460000000000001 0.050000000000000003 -0.10991625670708696 -0.071979903483552557 -0.35421319891212111
Au 2.1390000000000002 22.499000000000002 0.050000000000000003 -0.71060773703877744 -0.6224387070653824 1.3206507901719748
Au 2.1390000000000002 20.460000000000001 2.089 -1.5326820965521761 2.086165628567076 -0.33739081537676741
Au 0.10000000000000001 22.499000000000002 2.089 -0.044962620605489077 -1.3010122209226489 1.4562212264577761
Au 4.1779999999999999 20.460000000000001 0.050000000000000003 0.7760654591233459 -0.87076048726167887 -0.66328278722453493
Au 6.2170000000000005 22.499000000000002 0.050000000000000003 -0.073358641012646511 0.64907106241784285 0.75425887430334604
Au 6.2170000000000005 20.460000000000001 2.089 -0.65897204573425383 -1.0079340488076194 0.39679489934833462
Au 4.1779999999999999 22.499000000000002 2.089 -0.79272762440941902 1.4671753028802232 -1.1927917628830453
Au 8.2560000000000002 20.460000000000001 0.050000000000000003 -0.23034601471961436 0.62580747628697964 -0.52349212317881499
Au 10.295 22.499000000000002 0.050000000000000003 -3.0543489614031385 0.88092074724160574 -0.83857531956251485
Au 10.295 20.460000000000001 2.089 0.43151206039361262 2.3611929176757815 0.94226931902983613
Au 8.2560000000000002 22.499000000000002 2.089 0.0045220221272111666 1.1004281555044579 -0.47460571866055484
Au 12.334000000000001 20.460000000000001 0.050000000000000003 -0.69155243678947254 1.8968038118498654 0.69145419891099358
Au 14.373000000000001 22.499000000000002 0.050000000000000003 0.68743349006399901 -0.86607636807982769 0.50319588463198162
Au 14.373000000000001 20.460000000000001 2.089 1.6061989162624886 -1.0403199345783369 0.87692004200713136
Au 12.334000000000001 22.499000000000002 2.089 0.39045186106607721 -0.28717276161809691 -0.7134620635834904
Au 16.412000000000003 20.460000000000001 0.050000000000000003 -1.6195597229479979 -0.52975608255589435 0.3691185600112421
Au 18.451000000000004 22.499000000000002 0.050000000000000003 1.0052192025384259 0.41977905984552716 -0.89858567357346542
Au 18.451000000000004 20.460000000000001 2.089 1.3106759729116695 1.0576005426828354 0.34285134935414091
Au 16.412000000000003 22.499000000000002 2.089 0.12031605154006716 0.72018902879697244 1.8773758460589687
Au 20.490000000000002 20.460000000000001 0.050000000000000003 -2.1498258381239159 -0.37158769738820169 -1.8030129650402504
Au 22.529000000000003 22.499000000000002 0.050000000000000003 -2.9679768456603357 -1.2116349426158537 1.8080477094687857
Au 22.529000000000003 20.460000000000001 2.089 -0.87362524583818713 1.3026143118684217 -0.040700719782175251
Au 20.490000000000002 22.499000000000002 2.089 0.40068881605740048 1.0486468483862357 1.1768325017103756
Au 0.10000000000000001 0.070000000000000007 4.1280000000000001 -0.7281332839540996 -0.20501123388528011 1.2967424939510579
Au 2.1390000000000002 2.109 4.1280000000000001 -1.2560562557108812 -0.83793737497176957 -1.9707973861117423
Au 2.1390000000000002 0.070000000000000007 6.1670000000000007 -1.5229546577040503 -0.82349839830299598 1.6051009282271615
Au 0.10000000000000001 2.109 6.1670000000000007 -1.1977449294493843 -2.8549741966187807 0.53252760239258745
Au 4.1779999999999999 0.070000000000000007 4.1280000000000001 1.0915377043857428 -0.91364299870140264 0.0077235035520551521
Au 6.2170000000000005 2.109 4.1280000000000001 -1.0822600148041073 0.010981291507417206 -3.1571618145461922
Au 6.2170000000000005 0.070000000000000007 6.1670000000000007 -0.75623632349244274 -1.2052384493077326 -0.40485150670376846
Au 4.1779999999999999 2.109 6.1670000000000007 1.0217642262364952 -0.99786840485409378 -2.6389222640233485
Au 8.2560000000000002 0.070000000000000007 4.1280000000000001 0.19596331832001865 -1.1801486793733682 1.8182454429182415
Au 10.295 2.109 4.1280000000000001 1.3529679295184129 2.0826089973481348 2.8994128738191041
Au 10.295 0.070000000000000007 6.1670000000000007 0.70993911509721053 -0.77280573745408421 0.71299294062728846
Au 8.2560000000000002 2.109 6.1670000000000007 1.2593314534348146 0.73368464181878368 -1.9645161606282107
Au 12.334000000000001 0.070000000000000007 4.1280000000000001 1.5085291425548846 -0.13162464276555755 0.66470298415026929
Au 14.373000000000001 2.109 4.1280000000000001 -1.4477638491271916 -0.9153531743027814 0.54848911360985164
Au 14.373000000000001 0.070000000000000007 6.1670000000000007 -0.64126146141217533 0.67019722072722354 -0.3463801855155571
Au 12.334000000000001 2.109 6.1670000000000007 0.25453559882087484 -1.5969628566522831 0.51639738097268828
Au 16.412000000000003 0.070000000000000007 4.1280000000000001 -0.43228799639813636 0.79123087120998936 -0.65874499181036483
Au 18.451000000000004 2.109 4.1280000000000001 0.51785348779359563 0.9673746918608237 -2.6516647012946413
Au 18.451000000000004 0.070000000000000007 6.1670000000000007 -0.0031112394611334665 -0.26694291633157913 1.7001282503938751
Au 16.412000000000003 2.109 6.1670000000000007 0.82774699780711058 -0.01503582722532301 -2.5880998636496133
Au 20.490000000000002 0.070000000000000007 4.1280000000000001 0.66915640563353984 0.14619166374970485 -0.09178980812323316
Au 22.529000000000003 2.109 4.1280000000000001 0.099082948869680096 -1.3281893301229641 0.082118975356306564
Au 22.529000000000003 0.070000000000000007 6.1670000000000007 1.3841330079085359 1.0539939373007412 0.38881994593080199
Au 20.490000000000002 2.109 6.1670000000000007 -0.039381810753226137 -1.4560318710729994 0.48025660719826913
Au 0.10000000000000001 4.1480000000000006 4.1280000000000001 -1.2700635827037012 2.4700739957691016 0.92087171488159625
Au 2.1390000000000002 6.1870000000000012 4.1280000000000001 1.2242359400148026 0.8901467185121078 -0.25823620518924234
Au 2.1390000000000002 4.1480000000000006 6.1670000000000007 1.1936139139269781 -0.57525125192954296 0.31537952850686951
Au 0.10000000000000001 6.1870000000000012 6.1670000000000007 0.78938879028093778 -0.95279510677311929 0.60059240493937649
Au 4.1779999999999999 4.1480000000000006 4.1280000000000001 0.044418447293203676 1.9941170009119213 -1.1634472358883929
Au 6.2170000000000005 6.1870000000000012 4.1280000000000001 -2.0534219308143231 -0.22557487211848445 0.76290857823302261
Au 6.2170000000000005 4.1480000000000006 6.1670000000000007 -2.554862564256239 1.1952469213783896 1.28695297913648
Au 4.1779999999999999 6.1870000000000012 6.1670000000000007 1.2925539770955146 0.037079918671871957 -0.81694198698017129
Au 8.2560000000000002 4.1480000000000006 4.1280000000000001 -0.64552021304064977 -0.29025229457437723 -0.54355488194559232
Au 10.295 6.1870000000000012 4.1280000000000001 -0.99457717203131579 -2.3630872848069111 0.18329810009942857
Au 10.295 4.1480000000000006 6.1670000000000007 -2.1720565580797557 2.1793079339861299 0.1639073001971644
Au 8.2560000000000002 6.1870000000000012 6.1670000000000007 1.5594171942072765 0.63955700351688671 1.5831887163571374
Au 12.334000000000001 4.1480000000000006 4.1280000000000001 -1.6889080533759764 0.88291257169264092 -2.3965300889559269
Au 14.373000000000001 6.1870000000000012 4.1280000000000001 -0.70758135989956761 -0.27031102730698264 0.057570800498891038
Au 14.373000000000001 4.1480000000000006 6.1670000000000007 1.6494297868910546 -1.4098344939417486 1.0478300385205384
Au 12.334000000000001 6.1870000000000012 6.1670000000000007 0.034418759326254732 1.3162783809624838 -0.45269010693908213
Au 16.412000000000003 4.1480000000000006 4.1280000000000001 0.012785380252718706 -0.16320336257455345 0.84949827333389938
Au 18.451000000000004 6.1870000000000012 4.1280000000000001 -0.43328662511703503 0.55497791991680034 0.10942706918221866
Au 18.451000000000004 4.1480000000000006 6.1670000000000007 0.86697999326756658 0.70295939620479986 1.1005545072271186
Au 16.412000000000003 6.1870000000000012 6.1670000000000007 0.40749641966072203 1.331326661563013 0.72340035792035329
Au 20.490000000000002 4.1480000000000006 4.1280000000000001 -1.2483977290782742 -0.44624690349927154 0.58744698331884582
Au 22.529000000000003 6.1870000000000012 4.1280000000000001 0.3652455950421315 -1.3076946812530665 -0.70202151288938763
Au 22.529000000000003 4.1480000000000006 6.1670000000000007 -1.0972697456591263 0.32052860451481047 2.1513326466372638
Au 20.490000000000002 6.1870000000000012 6.1670000000000007 -0.14804130009682678 2.7531152398875189 1.706936569496974
Au 0.10000000000000001 8.2260000000000009 4.1280000000000001 -0.6807653004876264 0.53907238467875507 0.17222526949759406
Au 2.1390000000000002 10.265000000000001 4.1280000000000001 0.15371265435138534 1.4365611563048166 2.3930387336878365
Au 2.1390000000000002 8.2260000000000009 6.1670000000000007 0.24162874572589024 -0.3419843771778327 1.2700537702965415
Au 0.10000000000000001 10.265000000000001 6.1670000000000007 0.44069505288400412 -1.0230383276200392 -3.2673607742948159
Au 4.1779999999999999 8.2260000000000009 4.1280000000000001 -0.470672536872633 1.0103040500152403 -0.93885338674447871
Au 6.2170000000000005 10.265000000000001 4.1280000000000001 0.68961680499259492 -0.45733888948341739 0.50232049017731184
Au 6.2170000000000005 8.2260000000000009 6.1670000000000007 2.3090745392596124 1.8480941380857785 -1.5223390713337903
Au 4.1779999999999999 10.265000000000001 6.1670000000000007 0.52022186004397175 -0.86102252280521174 -0.84990991949623051
Au 8.2560000000000002 8.2260000000000009 4.1280000000000001 1.0867007475890489 0.19793685348382234 1.0926737895000946
Au 10.295 10.265000000000001 4.1280000000000001 -0.60649794454999084 -0.37465166272072115 -1.033937298675045
Au 10.295 8.2260000000000009 6.1670000000000007 1.1744401587617777 -0.33770523425987825 0.96857333383995103
Au 8.2560000000000002 10.265000000000001 6.1670000000000007 1.3105443561150703 1.1441535846227262 -0.22340427544208286
Au 12.334000000000001 8.2260000000000009 4.1280000000000001 0.40187021470585665 1.011264227735948 -0.55293265791736834
Au 14.373000000000001 10.265000000000001 4.1280000000000001 -3.7264678114193108 1.223215859059172 2.6847860539578647
Au 14.373000000000001 8.2260000000000009 6.1670000000000007 1.0510401307279993 -0.53806832194119314 0.94069568700995865
Au 12.334000000000001 10.265000000000001 6.1670000000000007 -0.59854341356574381 -1.3213635051209118 -0.49435987600865039
Au 16.412000000000003 8.2260000000000009 4.1280000000000001 0.46383489425986479 0.31328688606220767 0.64417619057221465
Au 18.451000000000004 10.265000000000001 4.1280000000000001 -0.23943941504117805 0.82537644165667889 -0.59789651484345874
Au 18.451000000000004 8.2260000000000009 6.1670000000000007 0.81154922564734155 0.4465654072432409 -1.1647455398903803
Au 16.412000000000003 10.265000000000001 6.1670000000000007 -2.2103284348947008 0.22152043159301471 -1.3027913469177101
Au 20.490000000000002 8.2260000000000009 4.1280000000000001 0.74581092736808019 -1.1565234399255304 -0.026692091614797995
Au 22.529000000000003 10.265000000000001 4.1280000000000001 -0.89536375258101741 -0.0061603255881787439 -0.7100256558466842
Au 22.529000000000003 8.2260000000000009 6.1670000000000007 1.1303151440030925 -0.74789968465446266 -0.56379356884329257
Au 20.490000000000002 10.265000000000001 6.1670000000000007 0.60381455593825972 0.69675513313824322 1.951730864518374
Au 0.10000000000000001 12.304000000000002 4.1280000000000001 0.63029333501766449 -0.0081402377853734675 1.9822573002067181
Au 2.1390000000000002 14.343000000000002 4.1280000000000001 -0.011132677569708257 -0.56534005988754021 -1.9135627727910527
Au 2.1390000000000002 12.304000000000002 6.1670000000000007 1.0571744140777899 -1.0286756294271469 -0.25195823166337616
Au 0.10000000000000001 14.343000000000002 6.1670000000000007 -3.3976176388379997 0.07052896293256955 -0.36746447271655036
Au 4.1779999999999999 12.304000000000002 4.1280000000000001 -0.65775924867427193 0.99748212452123131 -0.42054235317964034
Au 6.2170000000000005 14.343000000000002 4.1280000000000001 0.96747794185460112 -1.0975399429157235 0.35963608210297221
Au 6.2170000000000005 12.304000000000002 6.1670000000000007 -0.79174363176888618 -2.0854035269416724 0.73847277973871017
Au 4.1779999999999999 14.343000000000002 6.1670000000000007 0.16561240544309744 -0.73255895100345869 0.67360684460993259
Au 8.2560000000000002 12.304000000000002 4.1280000000000001 0.27186921567736239 1.5231312968742166 -0.86391594510780423
Au 10.295 14.343000000000002 4.1280000000000001 1.5173274477288421 -1.3799176341584998 0.96127570277197294
Au 10.295 12.304000000000002 6.1670000000000007 -0.26780427505485233 -0.6256947966796429 -0.18526777277783191
Au 8.2560000000000002 14.343000000000002 6.1670000000000007 -0.35172169951116339 2.957949951042826 -0.67729021028842884
Au 12.334000000000001 12.304000000000002 4.1280000000000001 -0.11897300814354166 -0.25861192601246213 -0.35207891906009692
Au 14.373000000000001 14.343000000000002 4.1280000000000001 0.69641530121684614 0.67711118651514723 0.02245306771578311
Au 14.373000000000001 12.304000000000002 6.1670000000000007 -1.0344411100518087 -0.076130763930084874 -1.0829466997347195
Au 12.334000000000001 14.343000000000002 6.1670000000000007 1.2915070468648002 -0.99504840304225883 -1.3362222612638603
Au 16.412000000000003 12.304000000000002 4.1280000000000001 0.35831001390360828 0.85840242123141663 -1.6746408796746055
Au 18.451000000000004 14.343000000000002 4.1280000000000001 -0.032412997053350594 -0.047663458064468256 -2.859703607550018
Au 18.451000000000004 12.304000000000002 6.1670000000000007 -0.93348863263881532 -0.19555542770842285 0.213996125771554
Au 16.412000000000003 14.343000000000002 6.1670000000000007 -0.95066054069527461 -0.80524892515445212 1.152321092366394
Au 20.490000000000002 12.304000000000002 4.1280000000000001 0.77871203660405053 0.33469649963886816 0.24001398868825924
Au 22.529000000000003 14.343000000000002 4.1280000000000001 1.3777199274233682 0.97718346160762082 -1.6279986904213219
Au 22.529000000000003 12.304000000000002 6.1670000000000007 1.2178836483116773 -0.13647398294895069 -2.5743683386396152
Au 20.490000000000002 14.343000000000002 6.1670000000000007 -2.035756674859329 2.1557463125002081 -0.71819195652135925
Au 0.10000000000000001 16.382000000000001 4.1280000000000001 1.228862441050961 -0.84048129517875636 1.1304241989771713
Au 2.1390000000000002 18.421000000000003 4.1280000000000001 -0.75329914367009976 -1.0098781142969815 -1.7986368588691575
Au 2.1390000000000002 16.382000000000001 6.1670000000000007 -0.16462927321302348 0.082145111690282074 0.80345394345293308
Au 0.10000000000000001 18.421000000000003 6.1670000000000007 -0.64863290508475047 2.6191796661834643 -1.2961081012091034
Au 4.1779999999999999 16.382000000000001 4.1280000000000001 0.81564335261709986 0.45602905898538076 -0.76931492252478206
Au 6.2170000000000005 18.421000000000003 4.1280000000000001 -0.040255404353008312 0.47561014938809326 0.021203889686608031
Au 6.2170000000000005 16.382000000000001 6.1670000000000007 1.5113670459985582 -1.5140124451721497 -0.836422124743603
Au 4.1779999999999999 18.421000000000003 6.1670000000000007 1.5581069011634816 1.8624911777345188 0.0069234519855406627
Au 8.2560000000000002 16.382000000000001 4.1280000000000001 -0.52948448410555216 -1.4638486033212441 -3.1198391915368178
Au 10.295 18.421000000000003 4.1280000000000001 2.2590772557574681 0.91469139250745723 -0.45598157797561323
Au 10.295 16.382000000000001 6.1670000000000007 -0.44599878135746879 -1.0252529524146572 0.46122974462669869
Au 8.2560000000000002 18.421000000000003 6.1670000000000007 -0.49661107110631136 -0.68454940030054334 -0.24070786458503232
Au 12.334000000000001 16.382000000000001 4.1280000000000001 1.1600453304668148 -0.22458619816025699 -0.87062150832264684
Au 14.373000000000001 18.421000000000003 4.1280000000000001 -0.2604583233269841 -0.88233982137810241 -0.82393271606862994
Au 14.373000000000001 16.382000000000001 6.1670000000000007 -0.50064131445682436 0.893499590317548 0.72242106327402533
Au 12.334000000000001 18.421000000000003 6.1670000000000007 1.5934546355897505 0.19389320798371296 -1.0944441649066501
Au 16.412000000000003 16.382000000000001 4.1280000000000001 0.17295298766344294 -0.95664284343676775 3.0464194986478601
Au 18.451000000000004 18.421000000000003 4.1280000000000001 0.42776525776026292 -2.053415823701652 -1.5760095418288749
Au 18.451000000000004 16.382000000000001 6.1670000000000007 0.1568529847134289 -1.992155570260812 0.56435350832429132
Au 16.412000000000003 18.421000000000003 6.1670000000000007 1.4007360463655476 -0.14139793161084396 -0.3123093877464671
Au 20.490000000000002 16.382000000000001 4.1280000000000001 -0.83588514541392389 -1.8771460747153206 1.4206835706968879
Au 22.529000000000003 18.421000000000003 4.1280000000000001 -1.0406909638605515 -0.26541681077265766 -0.22028555461755353
Au 22.529000000000003 16.382000000000001 6.1670000000000007 0.080326340907226054 -0.081326576731538522 -0.00065197032430785778
Au 20.490000000000002 18.421000000000003 6.1670000000000007 0.37090019963404464 -0.68822553550212306 -0.15301699473329644
Au 0.10000000000000001 20.460000000000001 4.1280000000000001 -0.35797941839326641 -0.59052671671146484 1.3352477382571954
Au 2.1390000000000002 22.499000000000002 4.1280000000000001 -1.1589436888513649 -0.9249266375801205 -0.98832323751691487
Au 2.1390000000000002 20.460000000000001 6.1670000000000007 0.832228741734507 0.48792942910221609 -0.16499664235115497
Au 0.10000000000000001 22.499000000000002 6.1670000000000007 -0.41578036826943338 -0.18342515641297294 -0.68909953944222635
Au 4.1779999999999999 20.460000000000001 4.1280000000000001 0.15780492689732584 0.80461730968010592 0.078397302526486509
Au 6.2170000000000005 22.499000000000002 4.1280000000000001 -0.20558925679426096 -0.07381078594109515 0.22276609175734624
Au 6.2170000000000005 20.460000000000001 6.1670000000000007 -1.9795830532563585 -0.07078086614920949 1.790093077352044
Au 4.1779999999999999 22.499000000000002 6.1670000000000007 -0.52600507588479706 1.0243763133531558 -1.1087443741637841
Au 8.2560000000000002 20.460000000000001 4.1280000000000001 0.96311529562187903 0.502634236384359 0.55602085441690297
Au 10.295 22.499000000000002 4.1280000000000001 -1.0946415931436295 0.58891536913986686 -0.98710111295505343
Au 10.295 20.460000000000001 6.1670000000000007 0.29104997779516034 1.5801049029666256 -0.19939935560548078
Au 8.2560000000000002 22.499000000000002 6.1670000000000007 0.16228202412568132 -0.74734914522295015 -1.254271474088845
Au 12.334000000000001 20.460000000000001 4.1280000000000001 2.5473988398786247 -1.3743818570669113 0.71037378804118845
Au 14.373000000000001 22.499000000000002 4.1280000000000001 0.56430689458857897 0.064056356272170156 0.3312463337130418
Au 14.373000000000001 20.460000000000001 6.1670000000000007 0.28590499254935969 0.20484663334868375 3.5991206018921127
Au 12.334000000000001 22.499000000000002 6.1670000000000007 1.5681420055751902 -0.22782877765210699 -0.15313414160428127
Au 16.412000000000003 20.460000000000001 4.1280000000000001 0.96673070978543851 0.41491349217636403 -0.37139544653778866
Au 18.451000000000004 22.499000000000002 4.1280000000000001 -0.10605638996854336 0.035435165871950759 -2.0353901991245009
Au 18.451000000000004 20.460000000000001 6.1670000000000007 1.096011434555221 0.51642029986703075 -1.1459686068829151
Au 16.412000000000003 22.499000000000002 6.1670000000000007 -2.1332500861615662 0.43275139551571212 -0.95304971818948558
Au 20.490000000000002 20.460000000000001 4.1280000000000001 -0.11413916225085395 -0.40367663538295995 0.029666986410636111
Au 22.529000000000003 22.499000000000002 4.1280000000000001 0.40735397246530652 0.11658770915951364 -0.34136265549664763
Au 22.529000000000003 20.460000000000001 6.1670000000000007 -1.7928019881019071 0.0042767491052530596 -1.9400973914636588
Au 20.490000000000002 22.499000000000002 6.1670000000000007 -1.2178456386984424 -0.15370741986257988 -2.7698413877390089
Au 0.10000000000000001 0.070000000000000007 8.2060000000000013 0.51780608181696075 -0.80925640049503855 -2.2587845609895751
Au 2.1390000000000002 2.109 8.2060000000000013 1.6832330953872185 -0.87256822556827296 0.20062007953903158
Au 2.1390000000000002 0.070000000000000007 10.245000000000001 -0.11522774666882811 1.5243808343597303 1.6616511822309616
Au 0.10000000000000001 2.109 10.245000000000001 -0.20163217067731151 1.2496482563115447 0.77587341475994565
Au 4.1779999999999999 0.070000000000000007 8.2060000000000013 -0.7282918783641521 1.6831665412742196 1.1877443226921982
Au 6.2170000000000005 2.109 8.2060000000000013 1.5199431596193131 2.047661610028777 0.47378124994107951
Au 6.2170000000000005 0.070000000000000007 10.245000000000001 -0.29061646607820796 0.17913439969850711 0.21012875831959116
Au 4.1779999999999999 2.109 10.245000000000001 -0.88115866754406125 1.8181368862109326 0.90239692624230139
Au 8.2560000000000002 0.070000000000000007 8.2060000000000013 2.2170026800286298 0.59522124442377455 -0.22303667243111011
Au 10.295 2.109 8.2060000000000013 -0.48919293986412465 -0.82495795381505621 0.52986289026869149
Au 10.295 0.070000000000000007 10.245000000000001 1.3498739158376958 -1.2536043152093133 1.0029009433109743
Au 8.2560000000000002 2.109 10.245000000000001 -1.2989701668820637 -0.91531969451838002 -0.087606371630097893
Au 12.334000000000001 0.070000000000000007 8.2060000000000013 0.71271300804899862 -0.37412098568217539 -1.2719618773961838
Au 14.373000000000001 2.109 8.2060000000000013 -1.9387059180070649 -0.69353714231247909 -0.98654144001761623
Au 14.373000000000001 0.070000000000000007 10.245000000000001 -0.58473705934004538 -0.19852400914544047 -0.66150824682303899
Au 12.334000000000001 2.109 10.245000000000001 -1.4049888647413731 0.28625267959132222 0.12007865959341672
Au 16.412000000000003 0.070000000000000007 8.2060000000000013 -0.64946232077353561 0.90999625705940035 -0.44503770507898471
Au 18.451000000000004 2.109 8.2060000000000013 -0.68870127357999988 1.7930936705267737 -0.9427269455002506
Au 18.451000000000004 0.070000000000000007 10.245000000000001 -0.65266013449634819 -0.021751255542006562 0.31164584278703628
Au 16.412000000000003 2.109 10.245000000000001 0.20428923199689084 0.2295888519936595 -2.2673125265726788
Au 20.490000000000002 0.070000000000000007 8.2060000000000013 0.36929700705420626 1.1921251381985647 -0.08331024507616544
Au 22.529000000000003 2.109 8.2060000000000013 -0.60904879017833269 0.11477138421289067 -0.87970239223957158
Au 22.529000000000003 0.070000000000000007 10.245000000000001 0.79614518011848223 1.4797110415625774 1.1469299813018139
Au 20.490000000000002 2.109 10.245000000000001 -0.32885985038265736 1.6415547169701021 1.2421850591397861
Au 0.10000000000000001 4.1480000000000006 8.2060000000000013 0.40719099101465744 0.69163632772155414 -0.39381203146049981
Au 2.1390000000000002 6.1870000000000012 8.2060000000000013 0.2996760716435668 -1.6153963769523854 -0.38049447631558575
Au 2.1390000000000002 4.1480000000000006 10.245000000000001 0.77682077561162322 -0.9419862454934077 -0.9721782885432021
Au 0.10000000000000001 6.1870000000000012 10.245000000000001 0.40012629285766665 -0.61662718580168585 -0.36527483022388135
Au 4.1779999999999999 4.1480000000000006 8.2060000000000013 -0.85273579173405578 -1.8495347995336249 -0.64464433054873749
Au 6.2170000000000005 6.1870000000000012 8.2060000000000013 -1.1369430642688223 1.192180831506249 -0.4641771579421109
Au 6.2170000000000005 4.1480000000000006 10.245000000000001 -0.92064721304787589 -0.58643146080396413 0.41568606096512717
Au 4.1779999999999999 6.1870000000000012 10.245000000000001 0.11585531831790463 -0.40849056132132844 0.78906065793230384
Au 8.2560000000000002 4.1480000000000006 8.2060000000000013 1.5032886555973424 -1.3207065623349652 0.14212123681666619
Au 10.295 6.1870000000000012 8.2060000000000013 1.5947400350637557 -1.6272312656990111 0.82091183390898548
Au 10.295 4.1480000000000006 10.245000000000001 1.8271433717700043 -0.70377649454391522 -1.3705471896096499
Au 8.2560000000000002 6.1870000000000012 10.245000000000001 0.51490266310070365 0.81176323855200294 0.13972488302715025
Au 12.334000000000001 4.1480000000000006 8.2060000000000013 0.90616049639289065 -0.30061175402041951 -1.0797010397460844
Au 14.373000000000001 6.1870000000000012 8.2060000000000013 -2.1805634042906528 1.1555521349991613 0.18080255460704542
Au 14.373000000000001 4.1480000000000006 10.245000000000001 0.35821142751028723 0.55400064915471636 -0.85767897956934513
Au 12.334000000000001 6.1870000000000012 10.245000000000001 -1.8789437862857417 0.3820520230531998 -1.9250366466035889
Au 16.412000000000003 4.1480000000000006 8.2060000000000013 0.72275760591311866 0.11089461055035196 0.4419584354627758
Au 18.451000000000004 6.1870000000000012 8.2060000000000013 -0.40746845624240191 -0.31773062463655899 1.05504283527982
Au 18.451000000000004 4.1480000000000006 10.245000000000001 -1.1684141195689042 1.7076190072786999 -0.68292790795531133
Au 16.412000000000003 6.1870000000000012 10.245000000000001 -1.7162264933706946 -1.1346375025874698 -0.43355567263514128
Au 20.490000000000002 4.1480000000000006 8.2060000000000013 -0.20126131575894007 0.98045791100938406 0.72450110495260911
Au 22.529000000000003 6.1870000000000012 8.2060000000000013 -1.2886932576045891 -2.1351633777972627 0.60832930101522953
Au 22.529000000000003 4.1480000000000006 10.245000000000001 -0.96714010141707729 0.60228874376186214 -0.63144830553886999
Au 20.490000000000002 6.1870000000000012 10.245000000000001 -0.28281908762351349 -1.2917775368201296 0.18296715108983339
Au 0.10000000000000001 8.2260000000000009 8.2060000000000013 1.3762042810904285 -1.9825281675300155 -1.5545306318076446
Au 2.1390000000000002 10.265000000000001 8.2060000000000013 -0.75035525767227595 -1.0834678815802798 0.084740761528127206
Au 2.1390000000000002 8.2260000000000009 10.245000000000001 0.59488010928039114 -0.32245109156872143 0.32196077598732753
Au 0.10000000000000001 10.265000000000001 10.245000000000001 -0.65804884186718438 -1.7654671428999051 0.23302152313535085
Au 4.1779999999999999 8.2260000000000009 8.2060000000000013 -1.5799523701256362 -0.35291237994631586 2.1595426700405422
Au 6.2170000000000005 10.265000000000001 8.2060000000000013 -0.62754068271314234 1.4264653084122072 1.0111991884156606
Au 6.2170000000000005 8.2260000000000009 10.245000000000001 -2.143493190551903 0.53011997820070045 -0.97548902755136091
Au 4.1779999999999999 10.265000000000001 10.245000000000001 -2.2555524735230716 -0.38947275475737947 2.216200362276957
Au 8.2560000000000002 8.2260000000000009 8.2060000000000013 1.6109562902060135 0.56482792629001477 1.1747935543994652
Au 10.295 10.265000000000001 8.2060000000000013 -0.93581471400109695 -2.2635131879677304 -0.84565579348312048
Au 10.295 8.2260000000000009 10.245000000000001 -6.0025288093353097 -5.024701434934995 5.1863033528939413
Au 8.2560000000000002 10.265000000000001 10.245000000000001 0.091263406971298811 -1.637905034421798 -1.5542447676471214
Au 12.334000000000001 8.2260000000000009 8.2060000000000013 -2.0867093228268154 3.8968341878055148 -5.0011545732455334
Au 14.373000000000001 10.265000000000001 8.2060000000000013 5.2406029044489557 5.2569251315129453 0.53259838257476599
Au 14.373000000000001 8.2260000000000009 10.245000000000001 3.2207616274244542 -1.695510053799 3.799352774325055
Au 12.334000000000001 10.265000000000001 10.245000000000001 2.8220170938813043 2.4977302376882431 -0.075769922874607168
Au 16.412000000000003 8.2260000000000009 8.2060000000000013 2.1576266137668285 -0.67285622675062029 -1.3597346621572912
Au 18.451000000000004 10.265000000000001 8.2060000000000013 -0.94109273730821918 0.44382316505538572 -0.046573848311274313
Au 18.451000000000004 8.2260000000000009 10.245000000000001 -1.6885657247425678 -0.55673628825292787 -1.6674395297559514
Au 16.412000000000003 10.265000000000001 10.245000000000001 2.5387329300045716 0.56017799559528869 -0.4453115080765111
Au 20.490000000000002 8.2260000000000009 8.2060000000000013 1.5860239933502447 -0.27480899144113091 -0.31679612810300006
Au 22.529000000000003 10.265000000000001 8.2060000000000013 -0.54656005715516254 1.5543956037850362 -0.49945306587345889
Au 22.529000000000003 8.2260000000000009 10.245000000000001 -0.82367307532306 -0.23097190509834847 2.0065791139101292
Au 20.490000000000002 10.265000000000001 10.245000000000001 -0.56547138486092474 0.02807110903228471 -0.065594529698765128
Au 0.10000000000000001 12.304000000000002 8.2060000000000013 0.85750775283735492 1.0327953622209953 -0.46951280623897829
Au 2.1390000000000002 14.343000000000002 8.2060000000000013 -1.1937153523737687 -0.84793035389082672 -0.13618485405084854
Au 2.1390000000000002 12.304000000000002 10.245000000000001 1.5727183455903559 -0.057849161882686184 0.03100778605585092
Au 0.10000000000000001 14.343000000000002 10.245000000000001 0.87649349281111777 -1.5483674753502372 1.4572381207016174
Au 4.1779999999999999 12.304000000000002 8.2060000000000013 -0.030458382617252876 -0.35951132027942617 0.23068880509074727
Au 6.2170000000000005 14.343000000000002 8.2060000000000013 -1.4866913030626503 2.4655661655183243 0.16406071107302492
Au 6.2170000000000005 12.304000000000002 10.245000000000001 -1.7828518323860327 -0.85398787435903789 -0.52671387516658674
Au 4.1779999999999999 14.343000000000002 10.245000000000001 -1.4683882593700865 1.4303996903431817 -0.75583903872130798
Au 8.2560000000000002 12.304000000000002 8.2060000000000013 1.7048776462163002 0.36399077860308915 -0.96063979585195614
Au 10.295 14.343000000000002 8.2060000000000013 7.360658917536778 -5.5598865649608644 -5.0418212684502457
Au 10.295 12.304000000000002 10.245000000000001 2.7271960637531842 -0.38088288926039776 -3.0907409025436032
Au 8.2560000000000002 14.343000000000002 10.245000000000001 -2.6994730390560413 5.695123927070644 2.6711379360721192
Au 12.334000000000001 12.304000000000002 8.2060000000000013 -3.5067778746848624 -0.081506616552379146 -3.1879133746293271
Au 14.373000000000001 14.343000000000002 8.2060000000000013 1.7023155965307806 -2.3390163676496663 1.7283652711735338
Au 14.373000000000001 12.304000000000002 10.245000000000001 -1.3367125174752905 -1.8176846061515581 -0.084223277896656776
Au 12.334000000000001 14.343000000000002 10.245000000000001 0.070661128732968204 8.07231479127997 -0.45053092573871667
Au 16.412000000000003 12.304000000000002 8.2060000000000013 -0.85601761168202684 4.8868497480646944 1.625309030523526
Au 18.451000000000004 14.343000000000002 8.2060000000000013 -0.56293768180848103 -0.4294264300048195 0.080708128406434057
Au 18.451000000000004 12.304000000000002 10.245000000000001 0.73244237314321237 -0.21300720053675531 0.75784087012310863
Au 16.412000000000003 14.343000000000002 10.245000000000001 2.8912993102005475 3.3528448972505998 1.8819558728719827
Au 20.490000000000002 12.304000000000002 8.2060000000000013 2.0801336375369619 -0.065643235040390935 -0.72948250044319618
Au 22.529000000000003 14.343000000000002 8.2060000000000013 -2.0159870085113631 0.045046506970665728 -0.13282562737376943
Au 22.529000000000003 12.304000000000002 10.245000000000001 -0.30068818636885958 -0.27428202599158552 -0.60946060164472071
Au 20.490000000000002 14.343000000000002 10.245000000000001 -0.15131553651781551 -0.3857354234149229 1.617972971961533
Au 0.10000000000000001 16.382000000000001 8.2060000000000013 2.1355701690052293 -0.51183530539921085 -1.972828755435093
Au 2.1390000000000002 18.421000000000003 8.2060000000000013 0.36018342619116933 0.68203071856185349 0.98103255718301685
Au 2.1390000000000002 16.382000000000001 10.245000000000001 -1.5025991823291991 0.19410029837475132 0.9969721845970092
Au 0.10000000000000001 18.421000000000003 10.245000000000001 -2.0149610752542211 -1.7118119994467322 -1.4132227909776232
Au 4.1779999999999999 16.382000000000001 8.2060000000000013 -0.037994951601148165 -0.29132748384393015 -1.050798626049293
Au 6.2170000000000005 18.421000000000003 8.2060000000000013 -1.6208096927780058 1.3123572464182522 0.44125906552644018
Au 6.2170000000000005 16.382000000000001 10.245000000000001 -0.21760770517478345 -0.33046741606966379 0.093422686408178496
Au 4.1779999999999999 18.421000000000003 10.245000000000001 -0.80831569491429778 -0.20896058936760534 -1.1296349783940618
Au 8.2560000000000002 16.382000000000001 8.2060000000000013 -0.40568135837635905 0.33322524471964504 1.5246553666592093
Au 10.295 18.421000000000003 8.2060000000000013 -0.72422818453263982 -0.29582320095337905 -1.1482173677634782
Au 10.295 16.382000000000001 10.245000000000001 5.7931651261684998 0.72314621899781528 2.2958514534831349
Au 8.2560000000000002 18.421000000000003 10.245000000000001 0.68741392668949897 1.5801631198293078 0.30669959942914299
Au 12.334000000000001 16.382000000000001 8.2060000000000013 -4.9719393799616212 3.3356246105831615 -3.8209356628069902
Au 14.373000000000001 18.421000000000003 8.2060000000000013 0.22952325157926243 -2.0824923318022517 -0.71414141118492169
Au 14.373000000000001 16.382000000000001 10.245000000000001 3.7348423807028088 0.43583015129849645 0.38590350576518084
Au 12.334000000000001 18.421000000000003 10.245000000000001 0.32692378221019569 -0.32413169474582143 -0.23448349396483908
Au 16.412000000000003 16.382000000000001 8.2060000000000013 -1.8950210334114652 -1.3315275580948376 0.7532170802374053
Au 18.451000000000004 18.421000000000003 8.2060000000000013 0.48135741522596248 0.43687917248513547 -1.2870496807720233
Au 18.451000000000004 16.382000000000001 10.245000000000001 1.3442297826886624 -0.26446317944132391 -0.32555176838076877
Au 16.412000000000003 18.421000000000003 10.245000000000001 1.7050559150594606 0.74637622641016266 -0.97507809844652671
Au 20.490000000000002 16.382000000000001 8.2060000000000013 0.21984775435849854 0.35027333408117972 0.79446359489299656
Au 22.529000000000003 18.421000000000003 8.2060000000000013 0.38339036630262335 1.2125228057358695 0.12578908184978899
Au 22.529000000000003 16.382000000000001 10.245000000000001 1.367189217826988 -0.17074158834884026 -1.7196197610932902
Au 20.490000000000002 18.421000000000003 10.245000000000001 0.38790136798945479 -1.4441037863590229 -0.9038829625611885
Au 0.10000000000000001 20.460000000000001 8.2060000000000013 1.7252693870359508 -0.30855630969378506 -0.89612321793352345
Au 2.1390000000000002 22.499000000000002 8.2060000000000013 -0.79485787978269018 -0.063652442205867132 -2.2537741292649094
Au 2.1390000000000002 20.460000000000001 10.245000000000001 -1.2820674965738936 -0.021871764838632644 2.4622024328326835
Au 0.10000000000000001 22.499000000000002 10.245000000000001 1.824660810903979 0.24242411371643147 -2.0214253880549888
Au 4.1779999999999999 20.460000000000001 8.2060000000000013 -0.43163826222306484 -0.11588711654869667 -1.8133345833127523
Au 6.2170000000000005 22.499000000000002 8.2060000000000013 -0.92520656371104548 -0.14264397050063318 0.17485182319490294
Au 6.2170000000000005 20.460000000000001 10.245000000000001 -0.73583929985509378 -0.35466968025882556 0.9589816242197996
Au 4.1779999999999999 22.499000000000002 10.245000000000001 0.24016862383744295 0.96846279207882247 -2.5793857257432813
Au 8.2560000000000002 20.460000000000001 8.2060000000000013 0.7538940890702549 1.8126071410384177 0.2127175866872883
Au 10.295 22.499000000000002 8.2060000000000013 -0.19310094497575789 0.32666896997919276 0.39038420344056124
Au 10.295 20.460000000000001 10.245000000000001 1.6572466348550161 1.2677786322535429 -0.6376525147725649
Au 8.2560000000000002 22.499000000000002 10.245000000000001 -0.94358342009420126 -0.2036875018992382 0.059478801331155726
Au 12.334000000000001 20.460000000000001 8.2060000000000013 -0.070267698919419502 0.1731491626482512 1.2143225494122225
Au 14.373000000000001 22.499000000000002 8.2060000000000013 -0.79181669726835113 -1.0144869749305807 -0.45174959433542689
Au 14.373000000000001 20.460000000000001 10.245000000000001 -0.42636557606640629 1.0605104455167518 -1.8717922851162574
Au 12.334000000000001 22.499000000000002 10.245000000000001 -1.4400803445844967 0.53839454921434415 0.5095237292127055
Au 16.412000000000003 20.460000000000001 8.2060000000000013 -0.87908929008792269 0.19631658336409533 1.3944286883238415
Au 18.451000000000004 22.499000000000002 8.2060000000000013 1.6642064174164832 -0.17244431018584222 -0.48951110528218322
Au 18.451000000000004 20.460000000000001 10.245000000000001 -1.2154812718363357 0.41698369570686505 -1.5597728995504898
Au 16.412000000000003 22.499000000000002 10.245000000000001 -1.980904794814591 -1.4533553450505752 0.63463080528037363
Au 20.490000000000002 20.460000000000001 8.2060000000000013 1.0551619623374147 -0.99183669927933504 0.62669831491832473
Au 22.529000000000003 22.499000000000002 8.2060000000000013 0.55912511916012231 -0.51980007611012324 0.60505545350190681
Au 22.529000000000003 20.460000000000001 10.245000000000001 -0.79327401434364508 -1.3025186983389656 1.9178153655129899
Au 20.490000000000002 22.499000000000002 10.245000000000001 0.52559408321298273 -1.9004644164190942 1.1705815823100534
Au 0.10000000000000001 0.070000000000000007 12.284000000000002 0.27566563622004597 0.4634056094900787 -2.0440522452458851
Au 2.1390000000000002 2.109 12.284000000000002 -0.56562972757946628 -0.23816210177534328 -0.0071892728115922257
Au 2.1390000000000002 0.070000000000000007 14.323000000000002 0.61375672423621985 0.46733866608595059 -0.32868337362425704
Au 0.10000000000000001 2.109 14.323000000000002 -1.751215231023072 -0.42130924276768894 1.3091353731941124
Au 4.1779999999999999 0.070000000000000007 12.284000000000002 -1.8790320945239567 -2.1282305721231531 -1.2992857242461995
Au 6.2170000000000005 2.109 12.284000000000002 0.25061285068938272 1.1506429847190176 -2.0429048206850733
Au 6.2170000000000005 0.070000000000000007 14.323000000000002 0.61873401956724905 -1.3474414865238955 -0.75462897302241239
Au 4.1779999999999999 2.109 14.323000000000002 -0.99726784006312919 -0.22090825983275764 -0.99293714023549273
Au 8.2560000000000002 0.070000000000000007 12.284000000000002 2.5251324159102277 -0.0022460869727587568 -1.4054057329316505
Au 10.295 2.109 12.284000000000002 1.8200429891356669 -0.1110001078876138 -0.35051609667175715
Au 10.295 0.070000000000000007 14.323000000000002 -0.31976959282444417 -0.15070470439461114 -0.33567420873994963
Au 8.2560000000000002 2.109 14.323000000000002 0.76865370636438513 0.13672548919371832 0.23972283487193474
Au 12.334000000000001 0.070000000000000007 12.284000000000002 -1.5673538028071621 0.8048118188033877 2.2891955294353181
Au 14.373000000000001 2.109 12.284000000000002 -1.2271771210567957 0.6239856292994217 2.0043448017715093
Au 14.373000000000001 0.070000000000000007 14.323000000000002 0.81666999848023325 -0.20957206114429519 0.094104627734853868
Au 12.334000000000001 2.109 14.323000000000002 1.572578809253093 0.9457707911684945 2.1528771841386112
Au 16.412000000000003 0.070000000000000007 12.284000000000002 -0.41114921968388723 1.7563993427898279 0.66910887332994129
Au 18.451000000000004 2.109 12.284000000000002 1.2854976991377085 0.74051731492831552 -0.86259143260191951
Au 18.451000000000004 0.070000000000000007 14.323000000000002 1.1227230600418749 -0.57978869386858822 -0.33502968524390886
Au 16.412000000000003 2.109 14.323000000000002 1.0512555880650853 -0.59664723133626896 0.046899936509160189
Au 20.490000000000002 0.070000000000000007 12.284000000000002 0.68503980542439058 -1.7251272754010909 -0.94924348231040501
Au 22.529000000000003 2.109 12.284000000000002 1.7433504963501099 0.14790301654787619 -1.2068414036140138
Au 22.529000000000003 0.070000000000000007 14.323000000000002 1.4728705912848064 -0.73075724010022181 -1.5260672720468369
Au 20.490000000000002 2.109 14.323000000000002 -0.93278698172562802 -0.16109928483340474 -0.47625727920903443
Au 0.10000000000000001 4.1480000000000006 12.284000000000002 -1.3183711326436243 -1.8298522349480977 1.8284656181818266
Au 2.1390000000000002 6.1870000000000012 12.284000000000002 -0.59474975802636409 0.42331120515558196 -1.1621651647825793
Au 2.1390000000000002 4.1480000000000006 14.323000000000002 1.294344240769802 -0.80753003969623638 -1.8376420570154395
Au 0.10000000000000001 6.1870000000000012 14.323000000000002 0.72393451004717946 1.0716177657049928 1.0866843109980044
Au 4.1779999999999999 4.1480000000000006 12.284000000000002 0.4986523597169053 1.1383360228605557 0.1732889523785002
Au 6.2170000000000005 6.1870000000000012 12.284000000000002 0.040901128734699879 -0.52436414278344345 0.014643118650378496
Au 6.2170000000000005 4.1480000000000006 14.323000000000002 -1.2907107892991267 -0.87718957665360486 -2.2894921976081006
Au 4.1779999999999999 6.1870000000000012 14.323000000000002 1.1217905140167357 -0.17089780531363841 -0.80594195830635262
Au 8.2560000000000002 4.1480000000000006 12.284000000000002 0.69449206962337295 0.20136799940591207 -0.14625570887481049
Au 10.295 6.1870000000000012 12.284000000000002 0.22055485294455635 1.0650856009096943 0.62540119370573022
Au 10.295 4.1480000000000006 14.323000000000002 1.0732387304290756 -1.3626060972905967 0.3562072290797848
Au 8.2560000000000002 6.1870000000000012 14.323000000000002 -2.4634806492032117 0.36326221530372826 2.1684104901352028
Au 12.334000000000001 4.1480000000000006 12.284000000000002 -0.9124151396079383 1.2561668076867327 -0.13303741330077865
Au 14.373000000000001 6.1870000000000012 12.284000000000002 -1.106010516413142 -1.3180182564663463 0.18631539056326521
Au 14.373000000000001 4.1480000000000006 14.323000000000002 -0.84120539289493446 0.20031110121692888 -0.93374206936091264
Au 12.334000000000001 6.1870000000000012 14.323000000000002 -0.060846532430214234 0.75526020669704841 1.3893971823264892
Au 16.412000000000003 4.1480000000000006 12.284000000000002 0.036147189000978568 -3.0100683524614542 0.88332865072254163
Au 18.451000000000004 6.1870000000000012 12.284000000000002 1.3140900103355422 0.35688782387122309 0.56894986084251598
Au 18.451000000000004 4.1480000000000006 14.323000000000002 1.4359239864812754 -1.669100531247619 2.8442427199995639
Au 16.412000000000003 6.1870000000000012 14.323000000000002 -0.31188374431557592 0.75222774484820676 -0.34407040640948933
Au 20.490000000000002 4.1480000000000006 12.284000000000002 -0.76281710124599533 1.1919964882841272 -0.49003392543827656
Au 22.529000000000003 6.1870000000000012 12.284000000000002 0.13863158160594072 0.42094515984719805 0.45402282106640501
Au 22.529000000000003 4.1480000000000006 14.323000000000002 0.14550334974114695 -1.0852685207960662 1.1651722880347215
Au 20.490000000000002 6.1870000000000012 14.323000000000002 0.098401558160963326 -0.63456902142255256 1.0197939925200821
Au 0.10000000000000001 8.2260000000000009 12.284000000000002 -0.18759213362390573 0.71567867564407883 0.15974518301922574
Au 2.1390000000000002 10.265000000000001 12.284000000000002 0.61732161684140474 -1.3285637540615105 -0.73044715252119885
Au 2.1390000000000002 8.2260000000000009 14.323000000000002 0.44764694083618795 0.85806205700571325 -1.1928244937977048
Au 0.10000000000000001 10.265000000000001 14.323000000000002 -0.5823435767424826 0.86565649783575371 -1.6097541287672146
Au 4.1779999999999999 8.2260000000000009 12.284000000000002 -0.60249261042664348 -1.1239624839294287 0.37825680882454182
Au 6.2170000000000005 10.265000000000001 12.284000000000002 0.76420807728215301 -0.24818984780654868 -1.9568682154344625
Au 6.2170000000000005 8.2260000000000009 14.323000000000002 -0.043828081078870831 -0.54915674912400203 -1.1742135107489813
Au 4.1779999999999999 10.265000000000001 14.323000000000002 -1.5168987329945236 1.2079418241525088 -1.792291927980896
Au 8.2560000000000002 8.2260000000000009 12.284000000000002 -5.2399489208660164 5.2653010081848031 10.105445725611744
Au 10.295 10.265000000000001 12.284000000000002 2.3639773598097169 2.8789883157907332 1.8449376972328964
Au 10.295 8.2260000000000009 14.323000000000002 -0.25989680891417233 1.9332639555461573 1.831233020326138
Au 8.2560000000000002 10.265000000000001 14.323000000000002 2.8924046802991148 -1.7648344732325023 -1.7013207779410857
Au 12.334000000000001 8.2260000000000009 12.284000000000002 1.7801860045379958 -1.4679490221725187 -2.0820114869920858
Au 14.373000000000001 10.265000000000001 12.284000000000002 4.3037668386927983 -0.79662755861966406 1.7461039256454138
Au 14.373000000000001 8.2260000000000009 14.323000000000002 3.0463713009716971 -1.7335921828715766 -4.902596424056056
Au 12.334000000000001 10.265000000000001 14.323000000000002 -2.8694879822321422 -3.8625398429016391 -0.44741241850275187
Au 16.412000000000003 8.2260000000000009 12.284000000000002 2.2462469533614269 1.091702246408635 -1.0400126047538458
Au 18.451000000000004 10.265000000000001 12.284000000000002 -1.2626881897303106 0.038463979750377943 -1.1671972378424473
Au 18.451000000000004 8.2260000000000009 14.323000000000002 0.27053990620049084 -0.35153027234444001 1.0339283343045069
Au 16.412000000000003 10.265000000000001 14.323000000000002 2.8031597902382241 -0.23056182811181242 0.5258292293902973
Au 20.490000000000002 8.2260000000000009 12.284000000000002 -0.27195010671040287 0.67346716102076809 -0.26237461325373174
Au 22.529000000000003 10.265000000000001 12.284000000000002 1.5139744253980723 0.6427150221896506 -0.1334576108831512
Au 22.529000000000003 8.2260000000000009 14.323000000000002 -1.6598409730825707 -0.70691639765750292 1.6332117438859
Au 20.490000000000002 10.265000000000001 14.323000000000002 -0.93478610186440136 1.2039112815843567 -1.4448685371639134
Au 0.10000000000000001 12.304000000000002 12.284000000000002 -0.16446327324087179 1.0906825830260032 1.3288006828362766
Au 2.1390000000000002 14.343000000000002 12.284000000000002 -0.61926025911132698 -1.2146579751748146 2.1841026398061549
Au 2.1390000000000002 12.304000000000002 14.323000000000002 0.054574010341899584 0.17666355468134967 1.4557995807876649
Au 0.10000000000000001 14.343000000000002 14.323000000000002 -0.75535531216982854 1.3470381179396818 1.4866239369885705
Au 4.1779999999999999 12.304000000000002 12.284000000000002 0.52797529311898672 0.6847747666945001 0.16406392706403589
Au 6.2170000000000005 14.343000000000002 12.284000000000002 0.30668219948404363 1.8895454689552438 0.15303453740277059
Au 6.2170000000000005 12.304000000000002 14.323000000000002 0.28833652511889296 0.45332480876116632 0.29180293579636329
Au 4.1779999999999999 14.343000000000002 14.323000000000002 -0.15951005937862844 0.20005113355878212 -0.62698236777570293
Au 8.2560000000000002 12.304000000000002 12.284000000000002 3.2510394710375459 -1.03908689109163 -2.3352971990875968
Au 10.295 14.343000000000002 12.284000000000002 1.8590710106480139 -2.8588510012047705 0.57721694145477453
Au 10.295 12.304000000000002 14.323000000000002 0.14748494062632952 -6.8729833285843247 -0.48917573536823328
Au 8.2560000000000002 14.343000000000002 14.323000000000002 1.3145780702085184 -1.046395127939189 -3.3276794732683115
Au 12.334000000000001 12.304000000000002 12.284000000000002 -7.594925377701327 -1.1868854776393551 -2.1091940039982227
Au 14.373000000000001 14.343000000000002 12.284000000000002 -6.7598383133853623 -3.7386963054802389 0.6977042316426465
Au 14.373000000000001 12.304000000000002 14.323000000000002 -1.8225997737749873 0.48171682953090444 0.84360186824169725
Au 12.334000000000001 14.343000000000002 14.323000000000002 8.5242983481425725 -0.96382163031892709 2.5394062687505641
Au 16.412000000000003 12.304000000000002 12.284000000000002 -7.2377154311327319 -2.1981389275575527 -5.937810125792212
Au 18.451000000000004 14.343000000000002 12.284000000000002 2.1146055547138691 -1.1835250681078615 -0.51171137003297207
Au 18.451000000000004 12.304000000000002 14.323000000000002 -0.010781913698092744 1.73712326010131 -2.1750797090201273
Au 16.412000000000003 14.343000000000002 14.323000000000002 -0.47403428365710715 -1.3152710044336167 -3.0438955598944766
Au 20.490000000000002 12.304000000000002 12.284000000000002 1.0454638588875376 -0.63907559065152753 0.8891189389942229
Au 22.529000000000003 14.343000000000002 12.284000000000002 -1.2134208061618186 -0.80545095225415186 0.64260153235581596
Au 22.529000000000003 12.304000000000002 14.323000000000002 0.78529477422485527 -1.6125163856519309 -0.12774151838523395
Au 20.490000000000002 14.343000000000002 14.323000000000002 0.41617021313575658 1.1162701652126166 -0.19739317250571944
Au 0.10000000000000001 16.382000000000001 12.284000000000002 -0.33677343196407628 0.22484041753491985 -2.6456400963156605
Au 2.1390000000000002 18.421000000000003 12.284000000000002 0.78297913714089573 0.72705723994406524 0.18452810620803389
Au 2.1390000000000002 16.382000000000001 14.323000000000002 -0.3027927762000428 -0.71651484125484177 0.11735278884548025
Au 0.10000000000000001 18.421000000000003 14.323000000000002 -2.6007253821644096 1.9846297690145744 0.6634616828468064
Au 4.1779999999999999 16.382000000000001 12.284000000000002 -1.1686275545065834 1.3040796610983496 0.40112734062777156
Au 6.2170000000000005 18.421000000000003 12.284000000000002 0.85453654925386491 2.2098825528538422 -2.0154320515534381
Au 6.2170000000000005 16.382000000000001 14.323000000000002 -1.4399534110054515 -2.4309900571909164 0.17584990729693126
Au 4.1779999999999999 18.421000000000003 14.323000000000002 0.20211305937120083 -1.4787224499070513 0.79783471277722628
Au 8.2560000000000002 16.382000000000001 12.284000000000002 -4.1817517503435804 2.1638343234350987 -4.9499795931930874
Au 10.295 18.421000000000003 12.284000000000002 0.45932457027571683 0.078883549150602542 -1.3045867538484375
Au 10.295 16.382000000000001 14.323000000000002 -6.9275264194385713 -0.76075675525430964 4.1435634343515444
Au 8.2560000000000002 18.421000000000003 14.323000000000002 -0.40999125119627028 -0.64108965212373537 -0.57586820096271196
Au 12.334000000000001 16.382000000000001 12.284000000000002 -0.48847262183579543 2.7067169782469227 -2.3735949667816452
Au 14.373000000000001 18.421000000000003 12.284000000000002 0.12292122967910184 0.50251887992722288 -1.8727500645171984
Au 14.373000000000001 16.382000000000001 14.323000000000002 2.8557348081230245 2.1779357721368298 -3.6731766403318722
Au 12.334000000000001 18.421000000000003 14.323000000000002 0.74154289012461194 -1.1094769725747757 -0.53124040547678264
Au 16.412000000000003 16.382000000000001 12.284000000000002 -6.0653470695332912 6.8026051120718822 -3.2651011239824408
Au 18.451000000000004 18.421000000000003 12.284000000000002 -1.3605265643757221 -0.50190126739699048 1.3360950342332967
Au 18.451000000000004 16.382000000000001 14.323000000000002 -0.70118948850060769 -2.1717170777255843 0.13563432076634405
Au 16.412000000000003 18.421000000000003 14.323000000000002 -0.4020928669818426 0.79700765472784241 -0.062257630246724968
Au 20.490000000000002 16.382000000000001 12.284000000000002 -0.096321440522408666 -1.7133139841663498 -2.1961871147788661
Au 22.529000000000003 18.421000000000003 12.284000000000002 0.048483945098817913 -1.1295815129402569 1.1255042513280455
Au 22.529000000000003 16.382000000000001 14.323000000000002 -0.05860439265475427 -0.19476312168781879 -0.020156279767873691
Au 20.490000000000002 18.421000000000003 14.323000000000002 0.057874300706159482 -2.3765565543302531 0.58128155873253584
Au 0.10000000000000001 20.460000000000001 12.284000000000002 -0.312123027192245 -1.1586437808971206 0.48838580517866109
Au 2.1390000000000002 22.499000000000002 12.284000000000002 -0.96678343762033159 0.42521297309242029 0.029725590349419555
Au 2.1390000000000002 20.460000000000001 14.323000000000002 -0.99665774667708817 0.40275838001491571 0.54179815662771824
Au 0.10000000000000001 22.499000000000002 14.323000000000002 -0.67008169060035505 2.0592030713421705 1.2698170632954056
Au 4.1779999999999999 20.460000000000001 12.284000000000002 -0.16084776731449479 -0.7559133673670555 -1.1147854853705514
Au 6.2170000000000005 22.499000000000002 12.284000000000002 1.0152412983249488 -1.4294400330601633 -0.45225723711120552
Au 6.2170000000000005 20.460000000000001 14.323000000000002 1.1340276320856439 0.65778055866646123 0.4451534524074735
Au 4.1779999999999999 22.499000000000002 14.323000000000002 0.34903659689418282 1.8945589847487108 1.4395568381846318
Au 8.2560000000000002 20.460000000000001 12.284000000000002 0.66238001365228105 -1.4377806631373891 -1.5440115305778046
Au 10.295 22.499000000000002 12.284000000000002 -1.0259366831453904 -1.6325855656613588 0.036327213495221528
Au 10.295 20.460000000000001 14.323000000000002 -1.0968955660141575 0.041972287827475238 -0.96929477162806088
Au 8.2560000000000002 22.499000000000002 14.323000000000002 -1.4696095937278815 -0.85246155255722389 -0.50877578444667693
Au 12.334000000000001 20.460000000000001 12.284000000000002 0.33601473117320813 0.3872625281159468 -0.34337824374679354
Au 14.373000000000001 22.499000000000002 12.284000000000002 0.047575880141127895 0.36829800443181898 -1.8963717081469278
Au 14.373000000000001 20.460000000000001 14.323000000000002 2.157999274717096 -0.7259419334597571 0.35517860872781171
Au 12.334000000000001 22.499000000000002 14.323000000000002 0.39715820090856907 -1.2938659413474967 -0.016315780064821372
Au 16.412000000000003 20.460000000000001 12.284000000000002 0.36585907044036486 1.1481697727387552 0.38051633575087607
Au 18.451000000000004 22.499000000000002 12.284000000000002 0.1652601048599342 0.39851282234389213 -1.0556272163224416
Au 18.451000000000004 20.460000000000001 14.323000000000002 0.41659141368805891 0.62332118398483627 -0.10859131940355296
Au 16.412000000000003 22.499000000000002 14.323000000000002 -0.27770039872658214 -1.3569083319133926 0.67589747795973532
Au 20.490000000000002 20.460000000000001 12.284000000000002 1.0180196160425945 -2.2590879908937844 0.96001387114945502
Au 22.529000000000003 22.499000000000002 12.284000000000002 -0.57881613969255163 -2.2908620206717436 0.70681142262748931
Au 22.529000000000003 20.460000000000001 14.323000000000002 2.4560597221977041 -0.020076111012229798 -2.1748804662944767
Au 20.490000000000002 22.499000000000002 14.323000000000002 -0.34633617714608989 0.43890168845939115 1.6287874569192691
Au 0.10000000000000001 0.070000000000000007 16.362000000000002 0.014839554486541879 0.59680045342091126 1.297178683781983
Au 2.1390000000000002 2.109 16.362000000000002 -0.36005039138113637 -0.055842626152349001 0.24165454532467176
Au 2.1390000000000002 0.070000000000000007 18.401000000000003 1.4208725315614832 -0.10347144663410444 0.71277607878827021
Au 0.10000000000000001 2.109 18.401000000000003 -1.2225480525587367 -1.2594199709323697 -0.87406868980368757
Au 4.1779999999999999 0.070000000000000007 16.362000000000002 -1.4670900767061428 -0.89355403081309703 1.7236477265202479
Au 6.2170000000000005 2.109 16.362000000000002 -1.6565475631816706 -0.21702744569486296 1.1687846423508419
Au 6.2170000000000005 0.070000000000000007 18.401000000000003 -1.37133875597062 -1.1641728673307301 -2.1380645076704852
Au 4.1779999999999999 2.109 18.401000000000003 1.039687095465694 0.1211560831760979 -0.63404695750743068
Au 8.2560000000000002 0.070000000000000007 16.362000000000002 -0.47231717437373877 -0.34364976514655377 -0.96092256294939049
Au 10.295 2.109 16.362000000000002 0.46901763009996883 1.5737099783767743 0.22380227581209777
Au 10.295 0.070000000000000007 18.401000000000003 1.8726921294755101 0.66542686144319585 -0.63325852664793547
Au 8.2560000000000002 2.109 18.401000000000003 1.6050398635845864 -1.1972953461133731 0.71399131494740753
Au 12.334000000000001 0.070000000000000007 16.362000000000002 -0.66268996189317264 1.378578713306321 -0.97038370931013163
Au 14.373000000000001 2.109 16.362000000000002 1.0545407549520229 0.10078916585220192 1.0648262358849085
Au 14.373000000000001 0.070000000000000007 18.401000000000003 -0.53484133018082614 -0.73009229548867893 1.5517567409688535
Au 12.334000000000001 2.109 18.401000000000003 0.65081246413694349 0.28385250731598238 0.51602449094584013
Au 16.412000000000003 0.070000000000000007 16.362000000000002 -1.825934512075273 -1.7226040641709186 0.98274914793656409
Au 18.451000000000004 2.109 16.362000000000002 1.3062754317701415 -0.73411526903811064 -0.25286229980491082
Au 18.451000000000004 0.070000000000000007 18.401000000000003 1.5090610749272433 1.363985523168405 0.062797583924037365
Au 16.412000000000003 2.109 18.401000000000003 -0.20791713102850851 -1.205370631659052 -0.64370737040475901
Au 20.490000000000002 0.070000000000000007 16.362000000000002 0.59148935332821895 -2.0986438788181068 0.065462867509809938
Au 22.529000000000003 2.109 16.362000000000002 -0.87845155799338281 -0.40536449112838108 -0.49644279786835138
Au 22.529000000000003 0.070000000000000007 18.401000000000003 0.35183465261797903 1.1213601337131933 -0.42803906084860976
Au 20.490000000000002 2.109 18.401000000000003 0.68587007184751181 -0.32114503257287097 -1.0500990317787322
Au 0.10000000000000001 4.1480000000000006 16.362000000000002 -0.15859463812173497 1.1209908349432205 -0.63187759265641474
Au 2.1390000000000002 6.1870000000000012 16.362000000000002 -1.0036561427182515 0.77464869615936383 -0.64040687739388746
Au 2.1390000000000002 4.1480000000000006 18.401000000000003 -1.978348951142473 -1.1534413025365136 0.63129161816067658
Au 0.10000000000000001 6.1870000000000012 18.401000000000003 -0.70438069668356695 1.3606792613839156 -1.6038381831754314
Au 4.1779999999999999 4.1480000000000006 16.362000000000002 -0.54487172957329555 0.78671513328388964 -1.4017683067612261
Au 6.2170000000000005 6.1870000000000012 16.362000000000002 -1.1514723118102681 -0.31918740261542139 -0.17396398240844524
Au 6.2170000000000005 4.1480000000000006 18.401000000000003 0.57522405266935972 1.7331884995681683 1.3094525190965294
Au 4.1779999999999999 6.1870000000000012 18.401000000000003 -0.068390543330437925 -2.6697522273929675 0.30934575077189441
Au 8.2560000000000002 4.1480000000000006 16.362000000000002 -1.2076311166392624 -2.3397099024783916 0.31716837040459722
Au 10.295 6.1870000000000012 16.362000000000002 -1.1422054861859992 0.72214974983324431 -0.59403083312567251
Au 10.295 4.1480000000000006 18.401000000000003 -0.76943009359477166 -0.75076594207485736 0.55301265250874898
Au 8.2560000000000002 6.1870000000000012 18.401000000000003 -3.2026631151668368 -0.17137003650335228 1.3146746625323882
Au 12.334000000000001 4.1480000000000006 16.362000000000002 0.79785032139750278 -0.82806995886345691 -0.02229980418832184
Au 14.373000000000001 6.1870000000000012 16.362000000000002 -0.10037191244557582 0.43664607189375809 -1.6934468308859958
Au 14.373000000000001 4.1480000000000006 18.401000000000003 2.7105272573792587 0.79026510176297871 1.5425427492351531
Au 12.334000000000001 6.1870000000000012 18.401000000000003 -2.0128050235195718 1.1066012768576496 1.8011134289794524
Au 16.412000000000003 4.1480000000000006 16.362000000000002 0.74532870542402563 0.85940256162350137 0.30725013240922561
Au 18.451000000000004 6.1870000000000012 16.362000000000002 -0.3722302114507916 0.28839869678934388 -0.32613925789024761
Au 18.451000000000004 4.1480000000000006 18.401000000000003 -0.33113220074962613 -0.96073256754587633 -1.5891886441726963
Au 16.412000000000003 6.1870000000000012 18.401000000000003 1.0301904352856124 -0.045920318894434355 0.77647430835489817
Au 20.490000000000002 4.1480000000000006 16.362000000000002 0.65837783949674078 1.4670113549954058 0.6530262288165618
Au 22.529000000000003 6.1870000000000012 16.362000000000002 -1.086753845178225 -1.4360841062868843 -0.97414115673178925
Au 22.529000000000003 4.1480000000000006 18.401000000000003 -0.2645862475724548 0.96912921427793097 1.4389989922655304
Au 20.490000000000002 6.1870000000000012 18.401000000000003 -0.51092450871988371 -2.3054368208806117 0.36998353259159911
Au 0.10000000000000001 8.2260000000000009 16.362000000000002 0.41683143671482831 -0.84007837440840827 0.32938301996230057
Au 2.1390000000000002 10.265000000000001 16.362000000000002 -0.027314683744735939 -0.090998407826135955 -0.52745711187724009
Au 2.1390000000000002 8.2260000000000009 18.401000000000003 0.11746225272368356 -0.78575357589613326 -0.62032503609685274
Au 0.10000000000000001 10.265000000000001 18.401000000000003 0.35917546589078164 -1.4780058877696054 -1.5254799845482088
Au 4.1779999999999999 8.2260000000000009 16.362000000000002 -0.11267521818711919 -0.63902406586909322 -1.1072888009217059
Au 6.2170000000000005 10.265000000000001 16.362000000000002 0.43349697634446438 1.2371851484527367 0.81233615947628446
Au 6.2170000000000005 8.2260000000000009 18.401000000000003 -1.4797955342580145 -0.49576993611522613 0.2573502751308544
Au 4.1779999999999999 10.265000000000001 18.401000000000003 0.58825141565094363 1.0232919106707563 -0.18897147348012663
Au 8.2560000000000002 8.2260000000000009 16.362000000000002 1.7648441624744411 -1.6075407013132734 -2.3361069614503291
Au 10.295 10.265000000000001 16.362000000000002 -1.3198665676048709 -6.2706300079586637 1.8108116927310667
Au 10.295 8.2260000000000009 18.401000000000003 0.99270820255273184 -0.45611964374040803 2.1040763528787374
Au 8.2560000000000002 10.265000000000001 18.401000000000003 -0.34298986990482971 0.39422360647298366 -0.6515036931939423
Au 12.334000000000001 8.2260000000000009 16.362000000000002 -0.81484854241213311 3.5431729688935976 2.2674561687832595
Au 14.373000000000001 10.265000000000001 16.362000000000002 8.0455828425198614 1.3133534637287938 7.4913385908442036
Au 14.373000000000001 8.2260000000000009 18.401000000000003 -1.3007250171784106 -1.4395614978827824 0.74628983478135202
Au 12.334000000000001 10.265000000000001 18.401000000000003 0.49101229496464072 0.10478967367547454 -0.077527865958480616
Au 16.412000000000003 8.2260000000000009 16.362000000000002 1.9369521610542122 1.043624482805823 0.087642284741010532
Au 18.451000000000004 10.265000000000001 16.362000000000002 -1.6001321876959691 0.41254719996532835 1.4819601459136214
Au 18.451000000000004 8.2260000000000009 18.401000000000003 1.545176227753752 0.47732020107247802 1.3844223405443037
Au 16.412000000000003 10.265000000000001 18.401000000000003 -0.91784266178491114 0.70209602725340303 0.6970123645244678
Au 20.490000000000002 8.2260000000000009 16.362000000000002 2.1337115177410673 2.1072258104079249 0.19474737462844549
Au 22.529000000000003 10.265000000000001 16.362000000000002 1.523193583306409 -0.19977279020019334 0.20632390377281637
Au 22.529000000000003 8.2260000000000009 18.401000000000003 -1.1153157061807228 -0.36522122179776911 -1.3531788339461575
Au 20.490000000000002 10.265000000000001 18.401000000000003 -0.44327801362524766 0.39405189852042799 0.61797193608199885
Au 0.10000000000000001 12.304000000000002 16.362000000000002 -1.0621877085507878 1.7378395500378978 0.86595018513654853
Au 2.1390000000000002 14.343000000000002 16.362000000000002 0.091746885511903117 1.3707884992513275 -0.23963143837340345
Au 2.1390000000000002 12.304000000000002 18.401000000000003 -0.30034115022743857 -1.0265354709143617 -1.4539845755891099
Au 0.10000000000000001 14.343000000000002 18.401000000000003 -0.45688424721320692 -0.85264748186879935 0.16744505163783471
Au 4.1779999999999999 12.304000000000002 16.362000000000002 1.2182350737210166 3.1703528903337208 -0.49444885453259013
Au 6.2170000000000005 14.343000000000002 16.362000000000002 1.6154350411149121 -1.7835308430332455 1.3770740973699054
Au 6.2170000000000005 12.304000000000002 18.401000000000003 0.40573323315854182 1.3015944876029149 0.17101382848899985
Au 4.1779999999999999 14.343000000000002 18.401000000000003 -0.40350495824171917 0.25437527572505741 -2.5507869448071223
Au 8.2560000000000002 12.304000000000002 16.362000000000002 -7.5654968492638321 -0.30466975054686751 7.4286352218390599
Au 10.295 14.343000000000002 16.362000000000002 1.5555355741503811 -4.7736215036220671 4.4805129750291313
Au 10.295 12.304000000000002 18.401000000000003 1.1097480563027056 -0.15143977564710012 1.3143193715399308
Au 8.2560000000000002 14.343000000000002 18.401000000000003 -0.75497257518390049 -1.7378187295802365 -0.86186789960078747
Au 12.334000000000001 12.304000000000002 16.362000000000002 -0.0084570806220101886 2.2738096456490458 0.78766720459765172
Au 14.373000000000001 14.343000000000002 16.362000000000002 -3.1073707586971833 -1.7563080496878563 1.293475248556323
Au 14.373000000000001 12.304000000000002 18.401000000000003 0.0023986725221322521 -1.4420564352253378 -0.93742590191628072
Au 12.334000000000001 14.343000000000002 18.401000000000003 -0.10932801056137868 2.6434931270956432 0.13730986667803904
Au 16.412000000000003 12.304000000000002 16.362000000000002 -3.7244478158074243 -3.1407857007196753 -3.9314007945144471
Au 18.451000000000004 14.343000000000002 16.362000000000002 -0.44898870330037904 1.2033963695090824 0.74137542679222956
Au 18.451000000000004 12.304000000000002 18.401000000000003 0.25837837761949101 -0.23249639686180607 0.85208537128569473
Au 16.412000000000003 14.343000000000002 18.401000000000003 -1.6597918094977462 -0.61950511708623335 1.0560296851818121
Au 20.490000000000002 12.304000000000002 16.362000000000002 -0.8039045043494758 -0.76134905982210754 0.52336916480948092
Au 22.529000000000003 14.343000000000002 16.362000000000002 1.2526231615698005 1.640089193498663 -0.07617436484075514
Au 22.529000000000003 12.304000000000002 18.401000000000003 2.1483644164285307 0.089998283574735452 0.85525692906415907
Au 20.490000000000002 14.343000000000002 18.401000000000003 -1.7766228088219111 0.74703413114668415 0.64136087338429937
Au 0.10000000000000001 16.382000000000001 16.362000000000002 -0.89787415184943531 -0.33288669876600513 0.38080586801580335
Au 2.1390000000000002 18.421000000000003 16.362000000000002 0.21295363167910702 0.20786063580908151 1.7674354157455527
Au 2.1390000000000002 16.382000000000001 18.401000000000003 0.17868554701603079 0.83424973537379044 2.6962907135254275
Au 0.10000000000000001 18.421000000000003 18.401000000000003 -1.0574861232462744 -0.82720767599659506 -0.72499347183823737
Au 4.1779999999999999 16.382000000000001 16.362000000000002 0.76807485105304141 -0.97043897739514473 -0.084965486941869214
Au 6.2170000000000005 18.421000000000003 16.362000000000002 -1.6384171564474592 -1.4140074544971744 0.30970245380179895
Au 6.2170000000000005 16.382000000000001 18.401000000000003 -0.77405310773870373 0.84991477932387638 -2.4149862672616687
Au 4.1779999999999999 18.421000000000003 18.401000000000003 -0.038975395403346942 -1.5896897316823855 -0.0024305569436999098
Au 8.2560000000000002 16.382000000000001 16.362000000000002 0.58561545744236443 -1.0313882640296208 -1.7706746324042264
Au 10.295 18.421000000000003 16.362000000000002 0.63973052454269208 -1.2167303353363021 -0.28721448934439642
Au 10.295 16.382000000000001 18.401000000000003 -0.30821227442051252 -1.0921738357607464 2.113879005783696
Au 8.2560000000000002 18.421000000000003 18.401000000000003 1.3708967737830478 -1.5976044604406276 -0.78040866825306154
Au 12.334000000000001 16.382000000000001 16.362000000000002 1.9701735103059383 -2.8261801697267517 -0.35311632300893037
Au 14.373000000000001 18.421000000000003 16.362000000000002 2.0186198171877772 -0.83985127113403013 1.04241738162224
Au 14.373000000000001 16.382000000000001 18.401000000000003 -0.98523917342144873 -0.51510487684118955 0.065770488864548657
Au 12.334000000000001 18.421000000000003 18.401000000000003 -0.43296818643664736 0.53812643145793027 -0.62649280199239743
Au 16.412000000000003 16.382000000000001 16.362000000000002 -0.46956929656962243 -0.4435067093160695 -1.137585364132782
Au 18.451000000000004 18.421000000000003 16.362000000000002 1.3145182676856011 1.6856233182904699 1.201623647464465
Au 18.451000000000004 16.382000000000001 18.401000000000003 1.1220214221720515 -1.3650391149607159 -1.182867603195463
Au 16.412000000000003 18.421000000000003 18.401000000000003 0.46888933184096648 -0.049585655490019954 0.017988566422329461
Au 20.490000000000002 16.382000000000001 16.362000000000002 -0.82155853696424275 0.045437742211909882 -1.5300803790639068
Au 22.529000000000003 18.421000000000003 16.362000000000002 1.2676922057747602 -1.1236494625518028 1.9392256093834215
Au 22.529000000000003 16.382000000000001 18.401000000000003 0.11960620033382754 0.30416573218412535 0.96271446660592974
Au 20.490000000000002 18.421000000000003 18.401000000000003 -0.19694265678883011 0.31181660927556315 -0.38663743840611958
Au 0.10000000000000001 20.460000000000001 16.362000000000002 -0.78455796132619171 -2.7418137778489062 0.18085690945098645
Au 2.1390000000000002 22.499000000000002 16.362000000000002 0.7795193522341195 -0.65734094767974804 0.26508064121971436
Au 2.1390000000000002 20.460000000000001 18.401000000000003 0.14078490251441816 0.82323181163883108 -0.021455498422748926
Au 0.10000000000000001 22.499000000000002 18.401000000000003 0.094017813663107491 -0.2489073907444084 1.4951698849764972
Au 4.1779999999999999 20.460000000000001 16.362000000000002 1.8451480078471583 0.94530912366168507 0.22714282116061474
Au 6.2170000000000005 22.499000000000002 16.362000000000002 0.68393440879247203 -1.5804386204214131 -0.7158352521595045
Au 6.2170000000000005 20.460000000000001 18.401000000000003 -1.0732407765296557 1.3625034018529172 -1.0932457685488917
Au 4.1779999999999999 22.499000000000002 18.401000000000003 -1.2388455799119433 1.5269323734891418 0.37279697377807725
Au 8.2560000000000002 20.460000000000001 16.362000000000002 -0.10663645428092744 -2.2154061737390451 -0.6383165232849064
Au 10.295 22.499000000000002 16.362000000000002 0.097826287002079765 0.086642092763069348 -0.52834553565090292
Au 10.295 20.460000000000001 18.401000000000003 0.052508208036623323 0.1230632887292179 3.4070923847889478
Au 8.2560000000000002 22.499000000000002 18.401000000000003 -1.1549423254948936 -0.4712072950156786 1.1280786820976474
Au 12.334000000000001 20.460000000000001 16.362000000000002 -0.9945217270598512 0.34460608974857854 -0.074181503038879701
Au 14.373000000000001 22.499000000000002 16.362000000000002 -0.642411098169406 0.15104725300806765 -1.4598105277281157
Au 14.373000000000001 20.460000000000001 18.401000000000003 -0.64186447652270806 0.71906545011241474 0.55934620760923182
Au 12.334000000000001 22.499000000000002 18.401000000000003 -0.38219308057704293 -0.41923228934851209 1.2778216989499762
Au 16.412000000000003 20.460000000000001 16.362000000000002 -1.5968869635532399 0.65467206164594949 -0.1955660470620402
Au 18.451000000000004 22.499000000000002 16.362000000000002 2.6561400342561425 0.13974917276096127 -0.49363116455418005
Au 18.451000000000004 20.460000000000001 18.401000000000003 -1.1870903071915659 1.6705594366682466 -0.011696829715077198
Au 16.412000000000003 22.499000000000002 18.401000000000003 0.54075835744810041 0.4744088721798862 0.75051668588939002
Au 20.490000000000002 20.460000000000001 16.362000000000002 -0.48978806661640167 1.2400364103252333 0.11464237314949058
Au 22.529000000000003 22.499000000000002 16.362000000000002 -1.8229644043915272 0.029076020218447216 -0.89485710369742877
Au 22.529000000000003 20.460000000000001 18.401000000000003 -0.38920175714142236 -2.2529434305761966 -1.3069632194710208
Au 20.490000000000002 22.499000000000002 18.401000000000003 -0.81234361413695388 0.38320781553220662 1.1978303551281761
Au 0.10000000000000001 0.070000000000000007 20.440000000000001 -1.4768496191072131 -1.4359503519091767 0.48337284053415225
Au 2.1390000000000002 2.109 20.440000000000001 -0.043949898267863247 0.66170106390678862 -1.2831458026607148
Au 2.1390000000000002 0.070000000000000007 22.479000000000003 -1.5175314820597778 -0.98747798136034137 0.95530439258997568
Au 0.10000000000000001 2.109 22.479000000000003 1.9031904654153768 0.060273228398682849 -1.3774378046549109
Au 4.1779999999999999 0.070000000000000007 20.440000000000001 0.94838699520988379 0.14854624976076261 -1.0603999015508334
Au 6.2170000000000005 2.109 20.440000000000001 -0.11004707188655354 0.1846932963945522 -1.230312602597927
Au 6.2170000000000005 0.070000000000000007 22.479000000000003 0.34315579602749913 0.28680151890374023 -1.1685472584614045
Au 4.1779999999999999 2.109 22.479000000000003 -2.1490762998801896 1.5078964869038425 -0.4621408043911997
Au 8.2560000000000002 0.070000000000000007 20.440000000000001 1.4794336474591665 0.33522674156360549 -0.077300019686978222
Au 10.295 2.109 20.440000000000001 -1.852748822791183 -0.49343515973107654 -0.3876258292798786
Au 10.295 0.070000000000000007 22.479000000000003 0.68300768124597389 -2.0481741042343851 0.94561657568453594
Au 8.2560000000000002 2.109 22.479000000000003 1.1891038392198963 0.86763647994627968 -0.015294832987868628
Au 12.334000000000001 0.070000000000000007 20.440000000000001 0.47017315881532795 0.023308115468871848 1.4408780495610638
Au 14.373000000000001 2.109 20.440000000000001 -0.035363363814292136 -0.27718481371086789 -2.5153492926685508
Au 14.373000000000001 0.070000000000000007 22.479000000000003 -0.23368840009683964 -0.24944545011332883 2.0413681070704457
Au 12.334000000000001 2.109 22.479000000000003 1.3213438559886195 -0.84551859933300599 -0.60694539922950475
Au 16.412000000000003 0.070000000000000007 20.440000000000001 0.10850535898863287 0.54975278532208194 0.32102332951602364
Au 18.451000000000004 2.109 20.440000000000001 0.47919788741645142 -0.12339568827021158 0.81862567593349067
Au 18.451000000000004 0.070000000000000007 22.479000000000003 -0.85006055628095378 -0.54516259858851845 1.5022196146606119
Au 16.412000000000003 2.109 22.479000000000003 -1.3267357868471437 0.86685811028240467 -0.7401989593114835
Au 20.490000000000002 0.070000000000000007 20.440000000000001 -0.86818596938071824 1.9810039834932844 1.3088105392864193
Au 22.529000000000003 2.109 20.440000000000001 -0.0067473876957095781 -0.52135417813703178 1.8879373122260339
Au 22.529000000000003 0.070000000000000007 22.479000000000003 -0.030236798833664865 1.1116964374847615 2.0296592412458536
Au 20.490000000000002 2.109 22.479000000000003 -0.26632187898733628 -0.27032438676050624 -0.089596728356095182
Au 0.10000000000000001 4.1480000000000006 20.440000000000001 0.49597837174038772 -0.57153103821203988 -3.7714506228369409
Au 2.1390000000000002 6.1870000000000012 20.440000000000001 -0.45917356951346683 -0.43870533403147527 2.9092121166378395
Au 2.1390000000000002 4.1480000000000006 22.479000000000003 -1.316666435014423 0.83543073240718857 -0.77266452343312053
Au 0.10000000000000001 6.1870000000000012 22.479000000000003 0.6515509676243304 3.2708035729885152 0.078674502969807839
Au 4.1779999999999999 4.1480000000000006 20.440000000000001 0.33792071869349183 1.6191090870173326 -1.7181043018220059
Au 6.2170000000000005 6.1870000000000012 20.440000000000001 0.77312653371765039 -0.27973011409064097 -1.7558758801915086
Au 6.2170000000000005 4.1480000000000006 22.479000000000003 -0.4424038320384262 3.3903912456292997 0.18200667449634933
Au 4.1779999999999999 6.1870000000000012 22.479000000000003 0.87067609020698222 1.2955761489161381 0.83991272859202037
Au 8.2560000000000002 4.1480000000000006 20.440000000000001 -0.75308046999851896 -0.715951123020383 1.4029624327553996
Au 10.295 6.1870000000000012 20.440000000000001 0.75007586675432925 0.087942224013354539 -0.53598721500693269
Au 10.295 4.1480000000000006 22.479000000000003 0.94595990515975825 -0.37084236895616846 1.5641764579871777
Au 8.2560000000000002 6.1870000000000012 22.479000000000003 -0.3806546153800886 -0.72856540909422629 0.93742698926925283
Au 12.334000000000001 4.1480000000000006 20.440000000000001 -0.0032554458404786867 1.7953737521278084 2.748819167513274
Au 14.373000000000001 6.1870000000000012 20.440000000000001 0.64062293009278459 1.3357853598025224 -0.12814695801799494
Au 14.373000000000001 4.1480000000000006 22.479000000000003 0.55035185028303912 0.38897449776087301 0.83369773903028044
Au 12.334000000000001 6.1870000000000012 22.479000000000003 1.5849715073474342 -0.52614008659266231 1.9063048240618312
Au 16.412000000000003 4.1480000000000006 20.440000000000001 -1.0183952275651535 -0.26030803798954782 0.79869406036661983
Au 18.451000000000004 6.1870000000000012 20.440000000000001 0.22066154946920166 2.0659916516168351 0.49927421483456941
Au 18.451000000000004 4.1480000000000006 22.479000000000003 -1.0595931824727713 -0.99505238791274375 1.2166411642723627
Au 16.412000000000003 6.1870000000000012 22.479000000000003 1.1057031646059745 -0.012628501980183855 0.53679853686101453
Au 20.490000000000002 4.1480000000000006 20.440000000000001 -0.90444543744182304 2.85975697513088 -0.97958084439412285
Au 22.529000000000003 6.1870000000000012 20.440000000000001 0.46379973701160798 0.57709958732522526 2.0272173799269488
Au 22.529000000000003 4.1480000000000006 22.479000000000003 0.52923370062005426 -2.2382966749258628 0.6316170514178413
Au 20.490000000000002 6.1870000000000012 22.479000000000003 0.78397957036028387 0.2109424377236562 1.367013534503525
Au 0.10000000000000001 8.2260000000000009 20.440000000000001 1.9210479455715082 -0.94380879038846921 1.3991395514065077
Au 2.1390000000000002 10.265000000000001 20.440000000000001 -0.26659761036082508 2.0660445023627592 0.93922894206581242
Au 2.1390000000000002 8.2260000000000009 22.479000000000003 -1.0662330745079731 -0.9353832086246161 1.8241752540498339
Au 0.10000000000000001 10.265000000000001 22.479000000000003 -0.32988960987960925 -0.53278582443414135 -1.0687429825998902
Au 4.1779999999999999 8.2260000000000009 20.440000000000001 0.21916301849997319 -0.19762422689942852 0.29046934540436187
Au 6.2170000000000005 10.265000000000001 20.440000000000001 1.7655446441662044 -0.93821895157018176 0.81600396074227399
Au 6.2170000000000005 8.2260000000000009 22.479000000000003 -0.26410192302175695 -1.2878831771587294 0.076657720497971163
Au 4.1779999999999999 10.265000000000001 22.479000000000003 1.206187112060225 1.9840058753914989 0.80807885132147861
Au 8.2560000000000002 8.2260000000000009 20.440000000000001 -1.1499214411987571 1.9608507711523366 0.065629393700843267
Au 10.295 10.265000000000001 20.440000000000001 -1.4518348686836089 2.0600115929680611 -2.0934562264728052
Au 10.295 8.2260000000000009 22.479000000000003 -0.69729903275743899 1.0277095975954587 -0.60628573682977394
Au 8.2560000000000002 10.265000000000001 22.479000000000003 -0.077859066948075845 0.82707519808050833 -0.78295465881950954
Au 12.334000000000001 8.2260000000000009 20.440000000000001 -1.0053145513481934 -0.3738114473800872 -0.51325272755625728
Au 14.373000000000001 10.265000000000001 20.440000000000001 1.1665929076536206 -0.51223603293528197 1.9166261338329931
Au 14.373000000000001 8.2260000000000009 22.479000000000003 -0.26903681631810977 1.0070969812565314 1.0983516960869335
Au 12.334000000000001 10.265000000000001 22.479000000000003 -0.94185085914834421 1.0360578432951257 1.4496922610380845
Au 16.412000000000003 8.2260000000000009 20.440000000000001 0.84221348370171345 0.064325619420862873 -0.8763788623701616
Au 18.451000000000004 10.265000000000001 20.440000000000001 1.8469457361593922 1.2866939534020803 -1.8789621339322093
Au 18.451000000000004 8.2260000000000009 22.479000000000003 1.6438006215860093 0.34252046566304933 -0.091818074011277395
Au 16.412000000000003 10.265000000000001 22.479000000000003 -1.2567179675550921 1.5550127668721707 -1.3966214532080998
Au 20.490000000000002 8.2260000000000009 20.440000000000001 2.5856468495126435 -0.01654481310851625 2.3201587110837081
Au 22.529000000000003 10.265000000000001 20.440000000000001 -0.13244315702170431 -1.1627017671012763 -0.70135477448194405
Au 22.529000000000003 8.2260000000000009 22.479000000000003 -0.1535643201881392 0.51322441029488775 0.25522742786453323
Au 20.490000000000002 10.265000000000001 22.479000000000003 -0.84428712630744707 -1.2124510324670754 -1.4264470807458742
Au 0.10000000000000001 12.304000000000002 20.440000000000001 1.8107610228727489 0.7884825245395064 0.3428071915607509
Au 2.1390000000000002 14.343000000000002 20.440000000000001 -0.93775501603719891 -1.0192507101194532 0.42134298097707606
Au 2.1390000000000002 12.304000000000002 22.479000000000003 -1.254771762383321 -2.5875033834323005 -0.93237852374416186
Au 0.10000000000000001 14.343000000000002 22.479000000000003 0.26340338271247077 -0.023177003189224013 -1.2803319531638251
Au 4.1779999999999999 12.304000000000002 20.440000000000001 -1.0253098739714843 -1.3736406221053667 -0.047693618567150479
Au 6.2170000000000005 14.343000000000002 20.440000000000001 3.3298651627476747 -0.083301474057903571 2.2140150246171624
Au 6.2170000000000005 12.304000000000002 22.479000000000003 -1.0879879671769594 2.5320969307657406 0.61107878211638644
Au 4.1779999999999999 14.343000000000002 22.479000000000003 -0.57041984951709968 0.51555862080741932 -2.18981906460691
Au 8.2560000000000002 12.304000000000002 20.440000000000001 0.99137242161564609 -1.3471699140898252 -0.31804289261269048
Au 10.295 14.343000000000002 20.440000000000001 0.5244082875863767 0.050750149392441414 -0.12952448282365675
Au 10.295 12.304000000000002 22.479000000000003 1.8208572130183187 -0.9803352080796951 0.57406611505313787
Au 8.2560000000000002 14.343000000000002 22.479000000000003 0.2928906138751462 -0.053834746376369556 1.0546170239224855
Au 12.334000000000001 12.304000000000002 20.440000000000001 3.1444530443564047 -0.13870799791121197 2.2298467374483333
Au 14.373000000000001 14.343000000000002 20.440000000000001 0.28856705789445891 1.5123930328207527 -1.490880985670634
Au 14.373000000000001 12.304000000000002 22.479000000000003 -0.57927072330694052 -0.37364470213053053 -0.4519728164433881
Au 12.334000000000001 14.343000000000002 22.479000000000003 -1.2026749730176181 0.63210957498149323 -0.32175718534772368
Au 16.412000000000003 12.304000000000002 20.440000000000001 -1.1645289142267599 1.0092158132728128 -0.23788989519010725
Au 18.451000000000004 14.343000000000002 20.440000000000001 0.1565672868829634 -0.59211272993115016 0.27965157452080741
Au 18.451000000000004 12.304000000000002 22.479000000000003 0.83357293204446914 0.5968911695115775 1.1764503558912274
Au 16.412000000000003 14.343000000000002 22.479000000000003 0.040461666164803428 0.49507274637808785 1.260044648094703
Au 20.490000000000002 12.304000000000002 20.440000000000001 0.038371701887513751 0.44158142400191019 1.1776717057157051
Au 22.529000000000003 14.343000000000002 20.440000000000001 -0.29283089732100082 0.66486514018456444 -0.3147542974030258
Au 22.529000000000003 12.304000000000002 22.479000000000003 0.43235194426857299 1.196912063730057 0.085488025120790331
Au 20.490000000000002 14.343000000000002 22.479000000000003 0.90008908749641758 1.5518149530565064 0.14197920293638247
Au 0.10000000000000001 16.382000000000001 20.440000000000001 -3.2380769208699061 -0.11594333323153645 -1.1983339748196769
Au 2.1390000000000002 18.421000000000003 20.440000000000001 1.0504635679432122 -0.25795562820904372 0.98550355798825506
Au 2.1390000000000002 16.382000000000001 22.479000000000003 -0.62533184653713059 1.6997434562916434 -1.1299832114154384
Au 0.10000000000000001 18.421000000000003 22.479000000000003 2.2037937672696866 0.99483682410947372 -0.11230305105943302
Au 4.1779999999999999 16.382000000000001 20.440000000000001 0.047339087800994939 -1.4620193221674804 -2.1340318173260124
Au 6.2170000000000005 18.421000000000003 20.440000000000001 -2.9176282770874686 0.98627011347742 -0.97784690369408245
Au 6.2170000000000005 16.382000000000001 22.479000000000003 0.17295799268106771 0.94744537898552472 0.51494802916654259
Au 4.1779999999999999 18.421000000000003 22.479000000000003 -0.99515542747458852 -2.0716602820212082 -0.32150386980000628
Au 8.2560000000000002 16.382000000000001 20.440000000000001 -1.1081522764199057 0.30875301635976271 1.6730416671605799
Au 10.295 18.421000000000003 20.440000000000001 -0.18614847789648423 0.48398860604246863 -0.39028277499981667
Au 10.295 16.382000000000001 22.479000000000003 -1.1784249537338751 -0.12304560620224765 -1.0056831006351161
Au 8.2560000000000002 18.421000000000003 22.479000000000003 1.3328107603644019 0.56723291487283245 -0.31448459055946398
Au 12.334000000000001 16.382000000000001 20.440000000000001 1.2388787323228945 -0.13091921932158956 -3.0167601696021382
Au 14.373000000000001 18.421000000000003 20.440000000000001 0.68973552075343614 2.0574113831253196 1.3700067556080484
Au 14.373000000000001 16.382000000000001 22.479000000000003 1.2531911033037535 -0.85994226965178977 0.64719639143910812
Au 12.334000000000001 18.421000000000003 22.479000000000003 0.83416770650927285 0.56490391498230519 -0.038294158348822535
Au 16.412000000000003 16.382000000000001 20.440000000000001 0.95921443526076267 -0.97914597118760105 -1.1890047149887639
Au 18.451000000000004 18.421000000000003 20.440000000000001 0.41390722558375503 -2.0511422717151633 0.19940069843136538
Au 18.451000000000004 16.382000000000001 22.479000000000003 0.19270846732512334 -0.96469283216870205 -2.0102601536842313
Au 16.412000000000003 18.421000000000003 22.479000000000003 2.3952510396396876 0.42942352889283286 0.63318164161842772
Au 20.490000000000002 16.382000000000001 20.440000000000001 -1.1839408017347006 1.3167515196398412 -1.0959551005916441
Au 22.529000000000003 18.421000000000003 20.440000000000001 0.76342731183079393 -1.8325169487884536 0.72768994241777363
Au 22.529000000000003 16.382000000000001 22.479000000000003 0.52385171509638484 0.35066545649902237 1.6314506150638157
Au 20.490000000000002 18.421000000000003 22.479000000000003 1.4448981326773653 -0.10884736774104657 0.19299526787225468
Au 0.10000000000000001 20.460000000000001 20.440000000000001 -1.0422036643709545 -0.28596771922040209 0.16924863120256248
Au 2.1390000000000002 22.499000000000002 20.440000000000001 -0.59065708647354287 -0.18672010228930369 -2.70787351586972
Au 2.1390000000000002 20.460000000000001 22.479000000000003 1.4337637544566031 -0.2913401805805918 -2.4594449414831798
Au 0.10000000000000001 22.499000000000002 22.479000000000003 -0.68574372016686169 -0.65274250793923039 -0.77649552019532475
Au 4.1779999999999999 20.460000000000001 20.440000000000001 2.0841870292854865 -0.68242298132089174 0.57283513612687109
Au 6.2170000000000005 22.499000000000002 20.440000000000001 -1.2389708687197305 -1.0359733929499242 0.18733269907067321
Au 6.2170000000000005 20.460000000000001 22.479000000000003 0.2416086630784694 1.1706787476933302 2.298025046092802
Au 4.1779999999999999 22.499000000000002 22.479000000000003 -1.2336522671315879 0.29189613825579164 -0.77853677500995155
Au 8.2560000000000002 20.460000000000001 20.440000000000001 -1.9961455362849185 0.74440119979464403 -0.1453318774226888
Au 10.295 22.499000000000002 20.440000000000001 2.3223438247652508 -0.59351163516424754 0.5368720026459638
Au 10.295 20.460000000000001 22.479000000000003 2.0159955999972583 -0.74582861666738154 -0.31093031009793237
Au 8.2560000000000002 22.499000000000002 22.479000000000003 2.0293774688607029 -0.6991000355830439 1.8571325224404709
Au 12.334000000000001 20.460000000000001 20.440000000000001 0.22176256889956281 0.55196317862798172 0.8635765426565285
Au 14.373000000000001 22.499000000000002 20.440000000000001 -1.2293825015452757 -1.6853006009108027 0.98136752309916842
Au 14.373000000000001 20.460000000000001 22.479000000000003 -0.55076673555119249 -1.3931402439025407 -0.44612065580300703
Au 12.334000000000001 22.499000000000002 22.479000000000003 -0.58262016228411606 -1.2127061599780602 -0.65319297849857383
Au 16.412000000000003 20.460000000000001 20.440000000000001 -0.86777519667684411 0.84198940923758836 1.8969753455193976
Au 18.451000000000004 22.499000000000002 20.440000000000001 0.71321434815974571 0.71601426249227307 1.5317104729041517
Au 18.451000000000004 20.460000000000001 22.479000000000003 -2.0569816319117566 0.24218214989669001 0.78560599068225034
Au 16.412000000000003 22.499000000000002 22.479000000000003 0.37598560860022945 -0.92573854612132689 -1.0872957965842109
Au 20.490000000000002 20.460000000000001 20.440000000000001 -1.0089795245019071 -0.15225192473458654 0.25063956037111196
Au 22.529000000000003 22.499000000000002 20.440000000000001 0.52229308268324326 1.6604542261193898 -1.293516762386353
Au 22.529000000000003 20.460000000000001 22.479000000000003 0.197280120335212 0.96807645592361313 -1.1853732389500753
Au 20.490000000000002 22.499000000000002 22.479000000000003 0.30762277021254636 1.2181083033689191 0.14337447268899889
