LAMMPS (4 Jul 2026)
  using 1 OpenMP thread(s) per MPI task
# Te-dependent SNAP + fix ttm, local hot spot, DETERMINISTIC (no Langevin: gamma_p 1e-50, gamma_s 0), Te linear in x.
# Strict parity check through neighbor rebuilds / cell changes. Needs the fix ttm pre_force patch.
variable nsteps index 1000
units           metal
boundary        p p p
lattice         fcc 4.078
Lattice spacing in x,y,z = 4.078 4.078 4.078
region          box block 0 6 0 6 0 6
create_box      1 box
Created orthogonal box = (0 0 0) to (24.468 24.468 24.468)
  1 by 1 by 1 MPI processor grid
create_atoms    1 box
Created 864 atoms
  using lattice units in orthogonal box = (0 0 0) to (24.468 24.468 24.468)
  create_atoms CPU = 0.001 seconds
mass            1 196.9665

#              seed   C_e       rho_e    kappa_e   gamma_p gamma_s v_0     Nx Ny Nz
fix twotemp all ttm 342785 1.2470e-5 0.087614 0.0005365 1e-50   0.0     58.4613 6  6  6 infile ttm_grid.in

pair_style hybrid/overlay zbl 2.0 3.5 snap_ttm
pair_coeff 1 1 zbl 79 79
pair_coeff * * snap_ttm dir.inputs/Au.snapcoeff dir.inputs/Au.snapparam dir.inputs/Au.snapbetas Au f_twotemp
Reading potential file dir.inputs/Au.snapcoeff with DATE: 2017-09-18
SNAPTTM Element = Au, Radius 4.25, Weight 1
SNAPTTM keyword rcutfac 0.5
SNAPTTM keyword twojmax 8
SNAPTTM keyword rfac0 0.99363
SNAPTTM keyword rmin0 0.0
SNAPTTM keyword bzeroflag 0
SNAPTTM keyword quadraticflag 0

compute avgte all reduce ave f_twotemp
thermo          10
thermo_style    custom step temp pe ke etotal press c_avgte f_twotemp[1] f_twotemp[2]
thermo_modify   norm yes format float %.16g

timestep 1.0e-3
neighbor 1.0 bin
neigh_modify once no every 1 delay 0 check yes

# local initial ionic temperature: 3000 K sphere (r = 6 ang) at the box center, 300 K elsewhere
region          hot sphere 12.234 12.234 12.234 6.0 units box
group           hot region hot
55 atoms in group hot
group           cold subtract all hot
809 atoms in group cold
displace_atoms all move 0.1 0.07 0.05 units box   # perfect fcc atoms sit exactly on cell faces: move them off (tie-break)
Displacing atoms ...
velocity cold create 300.0 3423 dist gaussian
velocity hot create 3000.0 4928459 dist gaussian
write_dump all custom init.dump id type x y z vx vy vz modify sort id format float %.17g
WARNING: Calling write_dump before a full system init (src/write_dump.cpp:87)
fix 1 all nve
run             ${nsteps}
run             1000
Neighbor list info ...
  update: every = 1 steps, delay = 0 steps, check = yes
  max neighbors/atom: 2000, page size: 100000
  master list distance cutoff = 5.25
  ghost atom cutoff = 5.25
  binsize = 2.625, bins = 10 10 10
  2 neighbor lists, perpetual/occasional/extra = 2 0 0
  (1) pair zbl, perpetual, half/full from (2)
      attributes: half, newton on
      pair build: halffull/newton
      stencil: none
      bin: none
  (2) pair snap_ttm, perpetual
      attributes: full, newton on, cut 5.25
      pair build: full/bin/atomonly
      stencil: full/bin/3d
      bin: standard
Per MPI rank memory allocation (min/avg/max) = 5.247 | 5.247 | 5.247 Mbytes
   Step          Temp          PotEng         KinEng         TotEng         Press         c_avgte      f_twotemp[1]   f_twotemp[2] 
         0  468.5979142526074 -15966.33337634686 0.06050092897916669 -15966.27287541788 590005.2003106157 32492.67001726427 0.6018760123465838 0
        10  464.2571920120761 -15965.78563956481 0.05994049599386087 -15965.72569906882 576349.7814748595 32492.67001726379 0.6018760123465831 5.152015212221915e-31
        20  432.4772888735505 -15965.53523382161 0.05583737559091291 -15965.47939644602 572782.5781951034 32457.67160201212 0.6018760123465839 -2.996839319579096e-30
        30  373.4686286369652 -15965.41563702546 0.04821873570041416 -15965.36741828976 573764.0857870283 32452.75511666257 0.6018760123465838 1.26338031837608e-30
        40  304.2391967253199 -15965.34785528233 0.03928048647658889 -15965.30857479585 576150.7167887571 32452.16286923583 0.6018760123465838 2.881483899598466e-30
        50  246.5385123553608 -15965.30105548267 0.03183072005437997 -15965.26922476262 578077.3592253815 32438.74389273458 0.6018760123465848 -4.396479479299929e-30
        60  216.6962499158505 -15965.27293476349 0.02797776948521208 -15965.24495699401 579218.3197720263 32426.54612872145 0.6018760123465818 5.127116739689308e-30
        70  217.4861779679876 -15965.26357660474 0.02807975752128182 -15965.23549684722 579816.1030421611 32429.49682654373 0.6018760123465829 1.863038567721806e-30
        80  238.5312159481947 -15965.26450642463 0.03079689370451717 -15965.23370953092 579896.1273975286 32439.80845363308 0.6018760123465815 -2.157740981437287e-30
        90  264.0157126800981 -15965.26781956552 0.03408721079716973 -15965.23373235473 579680.9224353859 32448.47053117975 0.6018760123465837 -1.069543222731562e-29
       100  280.5594519471874 -15965.27056588388 0.03622318188027716 -15965.234342702 579627.0669735976 32455.36413286213 0.6018760123465851 -6.174912449076029e-30
       110  281.6350155640232 -15965.27274885123 0.03636204847787725 -15965.23638680276 580069.6813386274 32463.48862575813 0.6018760123465837 -1.148286404838555e-30
       120  268.5423203550005 -15965.27235329799 0.03467164355097876 -15965.23768165443 580845.4184592227 32468.76881469104 0.6018760123465826 6.848163101972574e-30
       130  248.4151965845145 -15965.27002646421 0.03207301976552027 -15965.23795344445 581712.4135600301 32471.07958525929 0.6018760123465851 1.113800600438393e-30
       140  230.4715730681138 -15965.26918884385 0.02975630887335559 -15965.23943253498 582519.8855796265 32475.5460085511 0.6018760123465815 3.216040190337279e-30
       150  222.1214433847139 -15965.26926707936 0.02867821913463371 -15965.24058886023 582909.4432968107 32478.96174977917 0.6018760123465839 -5.451984954754705e-30
       160  226.5761612991112 -15965.27082244242 0.02925337016276203 -15965.24156907225 582791.8861040834 32481.75686078314 0.6018760123465842 -2.623029464424669e-30
       170  242.306325069467 -15965.2738124497 0.03128430007549726 -15965.24252814963 582247.6461206209 32484.32881780687 0.6018760123465838 -5.194191682265215e-30
       180  263.9416070286857 -15965.27717077515 0.03407764297662105 -15965.24309313217 581458.0754106456 32485.92367600613 0.6018760123465837 4.290714066086554e-30
       190  284.2263500070657 -15965.2803803394 0.03669661706286515 -15965.24368372234 580724.8120944247 32487.475340318 0.6018760123465847 2.249264047798837e-30
       200  296.5840140995103 -15965.28249118161 0.03829212172659773 -15965.24419905988 580281.6562729853 32488.79996225102 0.6018760123465838 -7.270104337493847e-30
       210  297.5016167644293 -15965.28295910725 0.03841059390065745 -15965.24454851335 580250.0162195971 32489.71021458285 0.6018760123465838 -1.988919076074226e-30
       220  287.7301201163907 -15965.28201062535 0.03714899070793717 -15965.24486163464 580610.4533101527 32490.49947310292 0.6018760123465837 -1.250215243445778e-30
       230  271.7770291046539 -15965.28015632834 0.03508927853905422 -15965.24506704981 581186.5643821212 32491.02791713423 0.6018760123465826 2.64784302333007e-30
       240  256.1049919747408 -15965.27831549656 0.03306585338815906 -15965.24524964317 581748.4925975768 32491.48438949253 0.6018760123465837 -2.410134434566668e-30
       250  246.8103544923137 -15965.277255723 0.03186581773902836 -15965.24538990527 582079.0610084169 32491.8330604278 0.6018760123465819 -1.643783185001367e-30
       260  247.6014316174885 -15965.2774592338 0.0319679541325366 -15965.24549127967 582046.2799742351 32492.08408108789 0.6018760123465832 2.764036273060971e-30
       270  258.7369828740715 -15965.27895833072 0.03340567115010579 -15965.24555265957 581640.622404072 32492.23836618033 0.6018760123465839 5.395449069174564e-30
       280  277.3370077435896 -15965.28141006693 0.03580713037434557 -15965.24560293656 580964.2997264132 32492.36144458485 0.6018760123465838 -2.487799121479226e-31
       290  298.7849503079169 -15965.28422266457 0.03857628578534064 -15965.24564637878 580173.318862063 32492.46506125096 0.6018760123465816 -1.164177710749084e-29
       300  318.5493326606983 -15965.28680027221 0.04112807583107721 -15965.24567219638 579436.2094137816 32492.52743939394 0.6018760123465838 -8.628668986900438e-30
       310  333.607125846031 -15965.28876321667 0.04307219561560893 -15965.24569102105 578866.9740238803 32492.57278588132 0.6018760123465819 -4.823264250092874e-30
       320  342.9890580967642 -15965.28998965576 0.04428350193927084 -15965.24570615382 578503.2040792746 32492.60874608987 0.6018760123465827 -6.882152467417622e-30
       330  347.5168085798647 -15965.29058363115 0.04486808224166156 -15965.24571554891 578317.1213020517 32492.63134051352 0.6018760123465851 4.565756394069358e-30
       340  349.0543933623658 -15965.29078862677 0.04506660064069012 -15965.24572202613 578238.6399107185 32492.64696446951 0.6018760123465826 -2.561937199523837e-30
       350  349.7020749989816 -15965.29087814399 0.04515022316547344 -15965.24572792082 578186.2412109212 32492.66078344093 0.6018760123465848 -2.265364971988541e-30
       360  351.1953266252433 -15965.29107346185 0.04534301768683314 -15965.24573044416 578109.9578068743 32492.66676710336 0.6018760123465851 -2.51990685014249e-30
       370  354.4547144646898 -15965.29149526521 0.04576383900547779 -15965.2457314262 577981.1755601207 32492.66900318671 0.6018760123465837 8.591584302435196e-31
       380  359.2056948393813 -15965.29210929108 0.04637724063934779 -15965.24573205044 577811.0112054405 32492.67011119512 0.6018760123465826 -1.601691872093944e-31
       390  363.9191549355253 -15965.29271827279 0.04698579800985545 -15965.24573247478 577661.6845020555 32492.67057410369 0.6018760123465816 1.545903199887609e-30
       400  366.294590863376 -15965.29302524327 0.04729249182131783 -15965.24573275145 577606.6183885211 32492.6706877867 0.6018760123465848 4.009588570335085e-30
       410  364.0730152518724 -15965.29273868605 0.04700566299812984 -15965.24573302305 577720.9797305713 32492.67093456352 0.6018760123465829 4.527254765635817e-30
       420  355.88635929853 -15965.29168178331 0.04594867944070188 -15965.24573310387 578038.7688594931 32492.6710368686 0.6018760123465816 -3.983847272381211e-30
       430  341.8809551202407 -15965.2898734233 0.04414043416742389 -15965.24573298913 578556.2376829759 32492.67102466047 0.6018760123465852 -7.631591033528912e-30
       440  323.8846458199416 -15965.28754970851 0.04181692098533666 -15965.24573278753 579203.8766816973 32492.67105925462 0.6018760123465827 -4.618553326842431e-30
       450  304.9535179878296 -15965.28510522398 0.03937271287934686 -15965.2457325111 579884.5768078835 32492.67098531399 0.6018760123465825 -4.070543378296921e-30
       460  288.3720410154018 -15965.28296412568 0.03723186946078707 -15965.24573225622 580485.6738086235 32492.67081146654 0.6018760123465848 3.38084611909734e-30
       470  276.5519742203757 -15965.28143797252 0.03570577427354008 -15965.24573219824 580928.671199357 32492.67078930083 0.6018760123465826 6.132406346350807e-31
       480  270.3370800297333 -15965.28063559463 0.03490336593879363 -15965.24573222869 581174.4773137214 32492.67067845436 0.6018760123465837 1.003172558393526e-30
       490  268.9455751693447 -15965.28045606405 0.03472370799715126 -15965.24573235605 581251.2181340759 32492.67057671613 0.6018760123465838 -3.072919419666143e-30
       500  270.4438061183395 -15965.28064964182 0.03491714540154964 -15965.24573249642 581224.6400062813 32492.67045500334 0.6018760123465825 1.312866894197551e-30
       510  272.567561786577 -15965.28092395195 0.03519134463920114 -15965.24573260731 581169.0469605315 32492.67037025931 0.6018760123465816 4.630616474113407e-30
       520  273.5752811335203 -15965.28105407903 0.03532145182659138 -15965.24573262721 581141.115818648 32492.67029439346 0.6018760123465851 1.356085907652636e-30
       530  272.8422232487338 -15965.28095936241 0.03522680632844438 -15965.24573255608 581164.5988045412 32492.67023414804 0.6018760123465816 3.111704232773576e-30
       540  270.9007264748294 -15965.28070856566 0.03497613863475945 -15965.24573242702 581225.2340541569 32492.67017487341 0.6018760123465824 -1.048369477760795e-29
       550  268.9694367855382 -15965.28045910292 0.03472678878326391 -15965.24573231414 581285.709518225 32492.67013405565 0.6018760123465827 2.980731689568753e-30
       560  268.2364025242447 -15965.28036439918 0.03463214633515881 -15965.24573225284 581314.6565508383 32492.67010380888 0.6018760123465844 -2.184040018360365e-32
       570  269.3527622874104 -15965.28050852895 0.03477628014517419 -15965.2457322488 581280.4158964497 32492.67008076338 0.6018760123465837 3.541468327229401e-31
       580  272.3063122565761 -15965.28088990082 0.03515761457173884 -15965.24573228624 581182.963656442 32492.67006314799 0.6018760123465851 2.81966383746412e-30
       590  276.5779042562747 -15965.28144146571 0.03570912211443446 -15965.2457323436 581039.7636899055 32492.6700500505 0.6018760123465845 3.224796287534742e-32
       600  281.4187475205704 -15965.28206652345 0.036334125994359 -15965.24573239745 580879.6361707315 32492.6700406597 0.6018760123465837 4.376746278188031e-30
       610  286.1270454663208 -15965.28267444247 0.03694201687685031 -15965.24573242559 580720.1946026748 32492.67003345731 0.6018760123465818 -8.06219368892482e-30
       620  290.3193270720522 -15965.28321570167 0.037483284611884 -15965.24573241705 580566.7756670489 32492.67002848756 0.6018760123465837 6.327188617648812e-31
       630  294.077372812225 -15965.28370085895 0.03796848792054425 -15965.24573237103 580420.3462149376 32492.67002510946 0.6018760123465826 -4.171241959222718e-30
       640  297.9261762365293 -15965.28419771134 0.03846540900266217 -15965.24573230234 580264.9246067076 32492.67002272907 0.6018760123465838 1.299373700629014e-30
       650  302.6747625064235 -15965.28481072799 0.03907850153237292 -15965.24573222645 580071.7012161558 32492.67002099761 0.6018760123465837 2.080926401247774e-30
       660  309.1885024910036 -15965.28565166876 0.03991949400845852 -15965.24573217476 579812.214815274 32492.67001966908 0.6018760123465847 -2.889131136680735e-30
       670  318.0245444526992 -15965.28679249661 0.04106032014302235 -15965.24573217647 579465.6349955013 32492.67001880966 0.6018760123465848 8.009616318930692e-30
       680  329.0634587778139 -15965.28821781338 0.0424855603143451 -15965.24573225307 579045.3752549184 32492.6700182104 0.6018760123465826 2.159337879175668e-30
       690  341.2940050104502 -15965.28979704434 0.04406465272276384 -15965.24573239162 578584.9286941426 32492.67001780937 0.6018760123465826 9.92178860947462e-31
       700  352.9774029137449 -15965.29130564811 0.0455731025158236 -15965.24573254559 578150.2429032385 32492.67001756541 0.6018760123465817 2.879560381178589e-30
       710  362.1920953399174 -15965.29249548144 0.04676281641570278 -15965.24573266503 577803.1821054354 32492.67001737366 0.6018760123465838 9.317303335331209e-31
       720  367.4389820082058 -15965.29317296546 0.04744024477811059 -15965.24573272068 577596.829010337 32492.67001727056 0.6018760123465837 -5.64169798966261e-30
       730  368.0077813788552 -15965.29324638765 0.04751368277106866 -15965.24573270488 577558.7811062407 32492.67001723767 0.6018760123465817 7.918403209539934e-30
       740  364.0689627860102 -15965.29273777423 0.04700513978208071 -15965.24573263445 577689.1341947756 32492.6700172137 0.6018760123465825 -6.588820263441664e-31
       750  356.5105465401579 -15965.29176179775 0.04602926859150009 -15965.24573252916 577957.3433646319 32492.67001720498 0.6018760123465826 5.070264675267047e-30
       760  346.6611386198747 -15965.2904900314 0.04475760623247674 -15965.24573242516 578320.7132812284 32492.67001720853 0.6018760123465848 -4.312742194320459e-30
       770  335.8513538370768 -15965.28909430384 0.04336194909971455 -15965.24573235474 578728.2220978992 32492.67001721104 0.6018760123465837 1.382149660562873e-30
       780  325.0436198172103 -15965.28769888113 0.04196655674205848 -15965.24573232439 579136.6856224545 32492.67001721626 0.6018760123465847 3.722158381323142e-30
       790  314.7042243817056 -15965.28636395559 0.04063163183115975 -15965.24573232376 579525.0601887684 32492.6700172203 0.6018760123465837 1.82716096247738e-30
       800  304.9204342481124 -15965.28510077592 0.03936844141990133 -15965.2457323345 579890.4219524316 32492.67001722956 0.6018760123465827 4.273896521728994e-30
       810  295.6098343993229 -15965.28389868683 0.03816634486105622 -15965.24573234197 580238.4932454136 32492.67001723626 0.6018760123465837 -7.272031365573631e-30
       820  286.7124347981998 -15965.28274993609 0.03701759680863395 -15965.24573233928 580569.2663324019 32492.67001724131 0.6018760123465851 2.894961142724233e-30
       830  278.2785747459267 -15965.28166102303 0.03592869659691056 -15965.24573232644 580873.5553419386 32492.67001724545 0.6018760123465838 2.01397822760334e-30
       840  270.5088595400228 -15965.28065783938 0.03492554448384473 -15965.2457322949 581154.4575136742 32492.67001724872 0.6018760123465836 -3.589522052055985e-30
       850  263.7969721374211 -15965.27979122204 0.03405896908794558 -15965.24573225295 581392.8937023696 32492.67001725227 0.6018760123465851 3.260211225211231e-31
       860  258.6885084088182 -15965.27913161643 0.03339941258580067 -15965.24573220385 581573.7622058424 32492.67001725444 0.6018760123465817 2.430743675485618e-31
       870  255.7834555990389 -15965.27875650606 0.03302433965359287 -15965.2457321664 581681.5325796069 32492.67001725715 0.6018760123465816 3.543284827358509e-30
       880  255.5407308182934 -15965.27872515603 0.03299300132647975 -15965.2457321547 581701.7868818068 32492.67001725877 0.6018760123465826 4.047604944439273e-30
       890  258.084917281261 -15965.27905366103 0.03332148261037805 -15965.24573217842 581625.0227565749 32492.67001726065 0.6018760123465836 -3.733735318102394e-31
       900  263.1080051873483 -15965.27970224772 0.03397001619411585 -15965.24573223152 581459.246643382 32492.67001726068 0.6018760123465837 7.52381354628142e-31
       910  269.9175544259228 -15965.28058150432 0.03484920076223376 -15965.24573230356 581227.6719032567 32492.67001726187 0.6018760123465816 5.693979201848026e-31
       920  277.5910593664641 -15965.28157230942 0.03583993111614376 -15965.24573237831 580962.7866746546 32492.67001726271 0.6018760123465836 2.513779718716415e-30
       930  285.1767989590352 -15965.28255176708 0.0368193300387288 -15965.24573243704 580702.2878380821 32492.67001726294 0.6018760123465816 4.396990974840993e-30
       940  291.9180114522132 -15965.2834221635 0.03768969161285945 -15965.24573247188 580470.504677796 32492.67001726352 0.6018760123465848 -7.473019538254379e-30
       950  297.3754858264029 -15965.28412678565 0.03839430906734619 -15965.24573247658 580285.5653234714 32492.67001726344 0.6018760123465816 5.04660424260321e-30
       960  301.4634282795548 -15965.28465456602 0.03892210551821928 -15965.24573246051 580142.7127031658 32492.67001726342 0.6018760123465815 3.890740314418666e-30
       970  304.3719534022986 -15965.28503005819 0.03929762676262326 -15965.24573243143 580042.120749704 32492.67001726351 0.6018760123465829 4.171874808296575e-30
       980  306.4705060594739 -15965.28530096455 0.03956857202594844 -15965.24573239252 579966.3169726355 32492.6700172633 0.6018760123465836 2.292332153999086e-30
       990  308.2627780755753 -15965.28553231945 0.03979997323081817 -15965.24573234622 579893.7396615344 32492.67001726397 0.6018760123465826 -2.067795193955712e-30
      1000  310.3359264496705 -15965.28579993748 0.04006763853347848 -15965.24573229894 579807.6602753482 32492.67001726394 0.6018760123465829 -7.629052912176329e-30
Loop time of 144.34 on 1 procs for 1000 steps with 864 atoms

Performance: 0.599 ns/day, 40.094 hours/ns, 6.928 timesteps/s, 5.986 katom-step/s
99.2% CPU use with 1 MPI tasks x 1 OpenMP threads

MPI task timing breakdown:
Section |  min time  |  avg time  |  max time  |%varavg| %total
---------------------------------------------------------------
Pair    | 144.23     | 144.23     | 144.23     |   0.0 | 99.93
Neigh   | 0.015591   | 0.015591   | 0.015591   |   0.0 |  0.01
Comm    | 0.006995   | 0.006995   | 0.006995   |   0.0 |  0.00
Output  | 0.0046276  | 0.0046276  | 0.0046276  |   0.0 |  0.00
Modify  | 0.07596    | 0.07596    | 0.07596    |   0.0 |  0.05
Other   |            | 0.004275   |            |       |  0.00

Nlocal:            864 ave         864 max         864 min
Histogram: 1 0 0 0 0 0 0 0 0 0
Nghost:           1593 ave        1593 max        1593 min
Histogram: 1 0 0 0 0 0 0 0 0 0
Neighs:          18098 ave       18098 max       18098 min
Histogram: 1 0 0 0 0 0 0 0 0 0
FullNghs:        36196 ave       36196 max       36196 min
Histogram: 1 0 0 0 0 0 0 0 0 0

Total # of neighbors = 36196
Ave neighs/atom = 41.893519
Neighbor list builds = 8
Dangerous builds = 0
Total wall time: 0:02:24
