# exaStamp parity counterpart of LAMMPS examples/snap (Ni)
variable nsteps index 100
units           metal
boundary        p p p

lattice         fcc 3.52
region          box block 0 3 0 3 0 3
create_box      1 box
create_atoms    1 box
mass 1 34.

# linear half of in.snap.scale.Ni_Zuo_JCPA2020 (quadratic part dropped)
pair_style snap
pair_coeff * * Ni_Zuo_JPCA2020.snapcoeff Ni_Zuo_JPCA2020.snapparam Ni

thermo          1
thermo_style    custom step temp pe ke etotal press pxx pyy pzz pxy pxz pyz
thermo_modify   norm yes format float %.16g

timestep 0.5e-3
neighbor 1.0 bin
neigh_modify once no every 1 delay 0 check yes

velocity all create 300.0 4928459 loop geom
# exact initial state (positions+velocities) for exaStamp, converted by lmp2xyz.py
write_dump all custom init.dump id type x y z vx vy vz modify sort id format float %.17g
fix 1 all nve
run             ${nsteps}
