ITEM: TIMESTEP
0
ITEM: NUMBER OF ATOMS
108
ITEM: BOX BOUNDS pp pp pp
0.0000000000000000e+00 1.0560000000000000e+01
0.0000000000000000e+00 1.0560000000000000e+01
0.0000000000000000e+00 1.0560000000000000e+01
ITEM: ATOMS id type x y z vx vy vz
1 1 0 0 0 -0.33339266056497863 0.86488670824720881 3.1707486197381134
2 1 1.76 1.76 0 3.8117357472442595 -2.0794168964830551 -2.2122307355615485
3 1 1.76 0 1.76 -0.51575173778399319 4.2286228747281065 1.8973846329987658
4 1 0 1.76 1.76 -0.40575750653006032 4.1947442964443376 3.566655923079272
5 1 3.52 0 0 -5.1259733182392537 1.3807019504764679 0.0094449566050739692
6 1 5.2800000000000002 1.76 0 1.3170291910258847 -0.77799639017606281 -3.9898575411535737
7 1 5.2800000000000002 0 1.76 0.20252231619869468 -3.2484630025922092 -1.8096427919052094
8 1 3.52 1.76 1.76 -1.6464172109730679 1.1952210881953635 -0.69919122010219592
9 1 7.04 0 0 -1.7687974368647104 -3.6813415889583885 1.4785231353725168
10 1 8.8000000000000007 1.76 0 0.47003512627087451 1.7397945502014596 -4.4757870476325143
11 1 8.8000000000000007 0 1.76 -1.4872661227983013 4.6176604570753037 -2.6154040716652651
12 1 7.04 1.76 1.76 2.0963849084596862 2.0395822526125058 0.92733105634557444
13 1 0 3.52 0 1.5682298341230987 1.0662983084407285 0.61266939632367434
14 1 1.76 5.2800000000000002 0 -0.11757483529237633 -1.5451135878788227 -4.3756056848902887
15 1 1.76 3.52 1.76 0.36959615118862571 -2.1757316582768218 -4.565761078037947
16 1 0 5.2800000000000002 1.76 -3.6878032612384573 4.007533795092816 2.8252574070991092
17 1 3.52 3.52 0 3.0990607322387929 2.7097786802360093 -1.546538557570676
18 1 5.2800000000000002 5.2800000000000002 0 3.3482189740796624 -0.73528301931722495 -2.3591776081469202
19 1 5.2800000000000002 3.52 1.76 3.9338863278434308 -1.0625026499101744 -4.2142083898256271
20 1 3.52 5.2800000000000002 1.76 3.8814438724288767 -1.6653114465681642 -1.61040431018207
21 1 7.04 3.52 0 -4.5593560355444511 0.28903455320684557 3.9174179303486754
22 1 8.8000000000000007 5.2800000000000002 0 -3.3537055893985608 -4.3664160937546255 -4.1261043159965531
23 1 8.8000000000000007 3.52 1.76 -0.4867709399718248 -2.3248940889328544 5.0256650452636418
24 1 7.04 5.2800000000000002 1.76 -3.3742184249444604 -0.67826490702840525 -2.2860544382791113
25 1 0 7.04 0 1.0199770670043204 1.0793761415793237 -2.2073473420062721
26 1 1.76 8.8000000000000007 0 -2.3839571397695654 4.2808456592379764 -1.1918154653531654
27 1 1.76 7.04 1.76 -2.3993051715134657 -2.017084044565669 0.073876819950802322
28 1 0 8.8000000000000007 1.76 -1.1216160369252994 3.8740659126323842 -4.4987662792986116
29 1 3.52 7.04 0 -1.187498279019247 0.0079206940871255852 2.6345811733259974
30 1 5.2800000000000002 8.8000000000000007 0 -1.7474349033701511 -2.7677131916356728 -3.8909256721782035
31 1 5.2800000000000002 7.04 1.76 -4.0803580074302284 -2.1971810406092969 2.7400359448626146
32 1 3.52 8.8000000000000007 1.76 3.5835320580421466 -4.5776610430825881 -2.2925287309116169
33 1 7.04 7.04 0 -3.4291279480489272 -4.0287050117634013 -0.16493898685378161
34 1 8.8000000000000007 8.8000000000000007 0 -1.7949502230543288 2.007097519527008 -3.0143229234772151
35 1 8.8000000000000007 7.04 1.76 1.9222203474460384 -2.057855303414748 2.0469919177444469
36 1 7.04 8.8000000000000007 1.76 3.4710128553658453 1.4144920348018761 -3.1471442916317942
37 1 0 0 3.52 1.8131817779260893 4.3587361988515418 1.2368155448654783
38 1 1.76 1.76 3.52 3.9362034732283151 -0.83461552244614012 2.6426764639790932
39 1 1.76 0 5.2800000000000002 -0.52340084923672536 1.4982265966162898 0.71102945749007529
40 1 0 1.76 5.2800000000000002 1.2498216804667048 2.1193528133338067 -3.7628985320508246
41 1 3.52 0 3.52 1.8257991846705572 3.4794268934885788 2.6616125755266595
42 1 5.2800000000000002 1.76 3.52 0.075314382952016562 -2.152458644156825 -0.57996632620816757
43 1 5.2800000000000002 0 5.2800000000000002 1.5489621789734651 -3.3550851020170582 -3.1749075966501321
44 1 3.52 1.76 5.2800000000000002 2.4891974653073694 2.8982269431666698 0.6397311408553783
45 1 7.04 0 3.52 -1.3201623871808992 -3.4861621917828574 0.64584001843338301
46 1 8.8000000000000007 1.76 3.52 4.0596971887514597 3.3981797132211806 1.892485130784674
47 1 8.8000000000000007 0 5.2800000000000002 3.1030129245221429 1.380617512979478 -1.4096960553181861
48 1 7.04 1.76 5.2800000000000002 -2.6570543449934223 2.2265971829470579 -1.6182325098970756
49 1 0 3.52 3.52 3.3500802543358699 1.5099727295447922 4.5464088053545488
50 1 1.76 5.2800000000000002 3.52 -4.5136288355820975 4.177671033651376 -2.6899505050906294
51 1 1.76 3.52 5.2800000000000002 -3.4048823567510365 -3.0549933092330552 -2.3400364334627799
52 1 0 5.2800000000000002 5.2800000000000002 -3.8282034243415235 -3.6782045831518042 -3.8723833078142129
53 1 3.52 3.52 3.52 0.86099400196664799 0.48090163783695089 -4.1898329421849487
54 1 5.2800000000000002 5.2800000000000002 3.52 -2.6962851130585532 1.0534593693265268 -2.2313158364280281
55 1 5.2800000000000002 3.52 5.2800000000000002 1.2190782870890833 -1.5928862134148323 -3.9253344254557536
56 1 3.52 5.2800000000000002 5.2800000000000002 -2.1853745743282964 2.5706485501158651 2.4340735690701547
57 1 7.04 3.52 3.52 2.1192982451644298 -0.019721313721912145 2.6518602023755049
58 1 8.8000000000000007 5.2800000000000002 3.52 4.3483488229808636 -4.1389110083295257 -3.6902000105878661
59 1 8.8000000000000007 3.52 5.2800000000000002 3.8158090564497362 -1.3729659535441217 4.5397205343848137
60 1 7.04 5.2800000000000002 5.2800000000000002 -1.8947143922662637 -0.24606026566129424 2.4569737132610894
61 1 0 7.04 3.52 1.7028260348349287 -1.6833146711587454 -4.1386909927925588
62 1 1.76 8.8000000000000007 3.52 0.55143583007956098 -4.5899016856950787 4.919055340581866
63 1 1.76 7.04 5.2800000000000002 1.8744769419534257 -1.1164827746144341 -1.6233434213561952
64 1 0 8.8000000000000007 5.2800000000000002 2.154452233496023 0.38863639184914117 3.4422858316131952
65 1 3.52 7.04 3.52 -0.33751392615819925 -0.64756724349195394 0.65760314793502239
66 1 5.2800000000000002 8.8000000000000007 3.52 -1.1478727000762261 -1.8624489066609935 5.0294907120097063
67 1 5.2800000000000002 7.04 5.2800000000000002 3.1112352545309649 4.0660042242169547 -1.7298118890674521
68 1 3.52 8.8000000000000007 5.2800000000000002 -2.5092042336764964 -0.38369855549084608 2.4736640866654076
69 1 7.04 7.04 3.52 3.3095686000000648 -1.8328329571419857 -0.5281253538710895
70 1 8.8000000000000007 8.8000000000000007 3.52 -2.4251630709902567 -1.051577792657671 -4.5029154894034873
71 1 8.8000000000000007 7.04 5.2800000000000002 -2.1273050768315378 0.95621523166845035 -0.8466786522224552
72 1 7.04 8.8000000000000007 5.2800000000000002 -3.1116011868260238 -0.53713446819939081 -1.6847596121620732
73 1 0 0 7.04 -3.8739594882801098 1.6271359269478958 -0.82687561177976865
74 1 1.76 1.76 7.04 2.7286550493723634 0.95880526873118277 3.9676989048297999
75 1 1.76 0 8.8000000000000007 -4.2934354496602154 -2.1250321426187977 -4.2192592521349441
76 1 0 1.76 8.8000000000000007 3.2006320549907321 -3.3806093440246894 3.3983797394179556
77 1 3.52 0 7.04 0.64636623879466204 3.5340879808700749 1.836593484296559
78 1 5.2800000000000002 1.76 7.04 3.9641202251658925 3.7657300168723551 4.0485692668790705
79 1 5.2800000000000002 0 8.8000000000000007 -0.55535685413299574 -3.2361865459330077 1.2597936587511107
80 1 3.52 1.76 8.8000000000000007 -0.79612741107809415 -4.0057123892676048 -0.89168626298097919
81 1 7.04 0 7.04 -3.5197879125503628 1.5460981862881713 1.924048429655786
82 1 8.8000000000000007 1.76 7.04 1.8602587203372707 1.895212499513995 3.9574443372539516
83 1 8.8000000000000007 0 8.8000000000000007 0.48931433332105195 -3.3237630859753682 0.58314870603915503
84 1 7.04 1.76 8.8000000000000007 -2.3088690921293571 -1.6756305704731136 -0.82023067733899624
85 1 0 3.52 7.04 -4.3534652907069988 -4.4208113522082346 1.1667015662136873
86 1 1.76 5.2800000000000002 7.04 1.311802647881845 -1.5086624603880032 -1.5244178083456918
87 1 1.76 3.52 8.8000000000000007 -3.1778613649185661 -1.0761561760462952 -1.3907700218235328
88 1 0 5.2800000000000002 8.8000000000000007 2.0382176457367489 2.010875414679679 2.4061978730288129
89 1 3.52 3.52 7.04 0.46712233009852711 1.1798984769427108 3.1092151115622566
90 1 5.2800000000000002 5.2800000000000002 7.04 -4.8258527426082454 2.69932642326892 -2.9939323000980123
91 1 5.2800000000000002 3.52 8.8000000000000007 3.3997605795676886 4.0851287403664056 0.28583434531160656
92 1 3.52 5.2800000000000002 8.8000000000000007 2.2858648602247493 2.2072585126803852 2.4459268466649569
93 1 7.04 3.52 7.04 3.588742032795083 -4.1254599221516273 -0.23695291736016763
94 1 8.8000000000000007 5.2800000000000002 7.04 -3.9096617839878061 1.6824699902849096 -0.020281657687266485
95 1 8.8000000000000007 3.52 8.8000000000000007 3.5787563049428939 2.2681011694276236 -0.95548814435452423
96 1 7.04 5.2800000000000002 8.8000000000000007 -4.9591225660887348 -1.2959199872163518 2.4527021692956761
97 1 0 7.04 7.04 1.6010766244145205 1.41395390914381 -2.5123283876786404
98 1 1.76 8.8000000000000007 7.04 -4.5409268780029182 0.29688250338154054 0.31060276940820081
99 1 1.76 7.04 8.8000000000000007 4.5057272510588033 -1.4722883696057651 0.032014107069815341
100 1 0 8.8000000000000007 8.8000000000000007 -1.3359444062051582 2.2800715615693354 -3.0300780391482371
101 1 3.52 7.04 7.04 0.76782607163033778 2.6206984054568849 1.5408282861659297
102 1 5.2800000000000002 8.8000000000000007 7.04 -1.8589418972409832 0.87844560164676311 -1.2431821517197708
103 1 5.2800000000000002 7.04 8.8000000000000007 -3.162841780344555 -0.29843805657444172 2.9409811917212281
104 1 3.52 8.8000000000000007 8.8000000000000007 2.7313940036391409 -1.4030595649108974 2.0692739248303971
105 1 7.04 7.04 7.04 4.3216976554402393 2.8523265728684621 3.519714664793713
106 1 8.8000000000000007 8.8000000000000007 7.04 -1.007511041805913 -4.5029550915674665 4.6872931431794695
107 1 8.8000000000000007 7.04 8.8000000000000007 -0.47003238482079845 -1.6937189987811669 4.8985575995794388
108 1 7.04 8.8000000000000007 8.8000000000000007 2.5380836480825706 1.8053245246829221 3.1488902469416726
