24
Lattice="4.69519042969 0.0 0.0 0.0 3.31999993324 0.0 0.0 0.0 53.1199989319" Properties=species:S:1:pos:R:3:forces:R:3 energy=-279.37937 stress="-7778.34 -1797.1200000000001 -1889.07 -1797.1200000000001 -10180.85 -1319.78 -1889.07 -1319.78 5.64"
Ta 2.34759 1.66 0.0535 0.000258 -0.00217 -0.000937
Ta 0.0 0.0 0.0535 0.000258 -0.00217 -0.000937
Ta 0.0 1.66 2.29801 -0.000506 0.00178 -2.1e-05
Ta 2.34759 0.0 2.29801 -0.000506 0.00178 -2.1e-05
Ta 2.34759 1.66 4.64678 0.007324 -0.004781 -0.001649
Ta 0.0 0.0 4.64678 0.007324 -0.004781 -0.001649
Ta 0.0 1.66 7.00147 -0.00816 0.030933 -0.001233
Ta 2.34759 0.0 7.00147 -0.00816 0.030933 -0.001233
Ta 2.34759 1.66 9.33754 0.0071 -0.132353 -0.001629
Ta 0.0 0.0 9.33754 0.0071 -0.132353 -0.001629
Ta 0.0 1.66 11.67995 0.168627 0.393088 0.00081
Ta 2.34759 0.0 11.67995 0.168627 0.393088 0.00081
Ta 3.05187 2.158 14.14365 -0.168627 -0.393088 -0.00081
Ta 0.70428 0.498 14.14365 -0.168627 -0.393088 -0.00081
Ta 0.70428 2.158 16.48604 -0.0071 0.132353 0.001629
Ta 3.05187 0.498 16.48604 -0.0071 0.132353 0.001629
Ta 3.05187 2.158 18.82211 0.00816 -0.030933 0.001233
Ta 0.70428 0.498 18.82211 0.00816 -0.030933 0.001233
Ta 0.70428 2.158 21.17681 -0.007324 0.004781 0.001649
Ta 3.05187 0.498 21.17681 -0.007324 0.004781 0.001649
Ta 3.05187 2.158 23.52548 0.000506 -0.00178 2.1e-05
Ta 0.70428 0.498 23.52548 0.000506 -0.00178 2.1e-05
Ta 0.70428 2.158 25.77 -0.000258 0.00217 0.000937
Ta 3.05187 0.498 25.77 -0.000258 0.00217 0.000937
