24
Lattice="4.69519042969 0.0 0.0 0.0 3.31999993324 0.0 0.0 0.0 53.1199989319" Properties=species:S:1:pos:R:3:forces:R:3 energy=-279.784283 stress="-9315.08 -723.62 1802.65 -723.62 -7584.349999999999 1731.7800000000002 1802.65 1731.7800000000002 -137.97"
Ta 2.34759 1.66 0.09121 0.000196 0.00161 0.000943
Ta 0.0 0.0 0.09121 0.000196 0.00161 0.000943
Ta 0.0 1.66 2.3361 0.000284 -0.000353 -0.002245
Ta 2.34759 0.0 2.3361 0.000284 -0.000353 -0.002245
Ta 2.34759 1.66 4.68536 -0.008799 0.00141 -0.002392
Ta 0.0 0.0 4.68536 -0.008799 0.00141 -0.002392
Ta 0.0 1.66 7.03392 0.006694 -0.021282 0.017465
Ta 2.34759 0.0 7.03392 0.006694 -0.021282 0.017465
Ta 2.34759 1.66 9.38594 0.014872 0.089556 -4.7e-05
Ta 0.0 0.0 9.38594 0.014872 0.089556 -4.7e-05
Ta 0.0 1.66 11.73648 -0.219937 -0.367391 -0.112068
Ta 2.34759 0.0 11.73648 -0.219937 -0.367391 -0.112068
Ta 4.46043 3.154 14.08712 0.219937 0.367391 0.112068
Ta 2.11284 1.494 14.08712 0.219937 0.367391 0.112068
Ta 2.11284 3.154 16.43764 -0.014872 -0.089556 4.7e-05
Ta 4.46043 1.494 16.43764 -0.014872 -0.089556 4.7e-05
Ta 4.46043 3.154 18.78966 -0.006694 0.021282 -0.017465
Ta 2.11284 1.494 18.78966 -0.006694 0.021282 -0.017465
Ta 2.11284 3.154 21.13823 0.008799 -0.00141 0.002392
Ta 4.46043 1.494 21.13823 0.008799 -0.00141 0.002392
Ta 4.46043 3.154 23.48739 -0.000284 0.000353 0.002245
Ta 2.11284 1.494 23.48739 -0.000284 0.000353 0.002245
Ta 2.11284 3.154 25.73229 -0.000196 -0.00161 -0.000943
Ta 4.46043 1.494 25.73229 -0.000196 -0.00161 -0.000943
