24
Lattice="4.69519042969 0.0 0.0 0.0 3.31999993324 0.0 0.0 0.0 53.1199989319" Properties=species:S:1:pos:R:3:forces:R:3 energy=-279.246935 stress="-7243.7300000000005 -2085.2 -898.75 -2085.2 -12860.99 -521.24 -898.75 -521.24 -339.14"
Ta 2.34759 1.66 0.03138 0.000299 -3.1e-05 0.000674
Ta 0.0 0.0 0.03138 0.000299 -3.1e-05 0.000674
Ta 0.0 1.66 2.276 -0.000225 0.001628 -0.00088
Ta 2.34759 0.0 2.276 -0.000225 0.001628 -0.00088
Ta 2.34759 1.66 4.62485 0.002741 -0.002715 0.000469
Ta 0.0 0.0 4.62485 0.002741 -0.002715 0.000469
Ta 0.0 1.66 6.98003 -0.004361 0.018297 0.002362
Ta 2.34759 0.0 6.98003 -0.004361 0.018297 0.002362
Ta 2.34759 1.66 9.31271 0.010328 -0.080927 0.000615
Ta 0.0 0.0 9.31271 0.010328 -0.080927 0.000615
Ta 0.0 1.66 11.66645 0.064416 0.215971 0.000489
Ta 2.34759 0.0 11.66645 0.064416 0.215971 0.000489
Ta 3.28663 2.324 14.15715 -0.064416 -0.215971 -0.000489
Ta 0.93904 0.664 14.15715 -0.064416 -0.215971 -0.000489
Ta 0.93904 2.324 16.51087 -0.010328 0.080927 -0.000615
Ta 3.28663 0.664 16.51087 -0.010328 0.080927 -0.000615
Ta 3.28663 2.324 18.84355 0.004361 -0.018297 -0.002362
Ta 0.93904 0.664 18.84355 0.004361 -0.018297 -0.002362
Ta 0.93904 2.324 21.19874 -0.002741 0.002715 -0.000469
Ta 3.28663 0.664 21.19874 -0.002741 0.002715 -0.000469
Ta 3.28663 2.324 23.54749 0.000225 -0.001628 0.00088
Ta 0.93904 0.664 23.54749 0.000225 -0.001628 0.00088
Ta 0.93904 2.324 25.79212 -0.000299 3.1e-05 -0.000674
Ta 3.28663 0.664 25.79212 -0.000299 3.1e-05 -0.000674
