24
Lattice="4.69519042969 0.0 0.0 0.0 3.31999993324 0.0 0.0 0.0 53.1199989319" Properties=species:S:1:pos:R:3:forces:R:3 energy=-279.302158 stress="-5999.0 -2091.5499999999997 -2060.3199999999997 -2091.5499999999997 -8316.509999999998 -1933.87 -2060.3199999999997 -1933.87 4767.089999999999"
Ta 2.34759 1.66 0.09121 0.000338 -0.000764 0.003013
Ta 0.0 0.0 0.09121 0.000338 -0.000764 0.003013
Ta 0.0 1.66 2.3361 -0.000192 0.002217 -0.008533
Ta 2.34759 0.0 2.3361 -0.000192 0.002217 -0.008533
Ta 2.34759 1.66 4.68536 0.007402 -0.005681 -0.01113
Ta 0.0 0.0 4.68536 0.007402 -0.005681 -0.01113
Ta 0.0 1.66 7.03392 -0.010084 0.035505 0.068653
Ta 2.34759 0.0 7.03392 -0.010084 0.035505 0.068653
Ta 2.34759 1.66 9.38594 0.009421 -0.162853 -0.055133
Ta 0.0 0.0 9.38594 0.009421 -0.162853 -0.055133
Ta 0.0 1.66 11.73648 0.194592 0.543144 -0.645035
Ta 2.34759 0.0 11.73648 0.194592 0.543144 -0.645035
Ta 3.05187 2.158 14.08712 -0.194592 -0.543144 0.645035
Ta 0.70428 0.498 14.08712 -0.194592 -0.543144 0.645035
Ta 0.70428 2.158 16.43764 -0.009421 0.162853 0.055133
Ta 3.05187 0.498 16.43764 -0.009421 0.162853 0.055133
Ta 3.05187 2.158 18.78966 0.010084 -0.035505 -0.068653
Ta 0.70428 0.498 18.78966 0.010084 -0.035505 -0.068653
Ta 0.70428 2.158 21.13823 -0.007402 0.005681 0.01113
Ta 3.05187 0.498 21.13823 -0.007402 0.005681 0.01113
Ta 3.05187 2.158 23.48739 0.000192 -0.002217 0.008533
Ta 0.70428 0.498 23.48739 0.000192 -0.002217 0.008533
Ta 0.70428 2.158 25.73229 -0.000338 0.000764 -0.003013
Ta 3.05187 0.498 25.73229 -0.000338 0.000764 -0.003013
