24
Lattice="4.69519042969 0.0 0.0 0.0 3.31999993324 0.0 0.0 0.0 53.1199989319" Properties=species:S:1:pos:R:3:forces:R:3 energy=-279.068761 stress="-2699.74 -3225.67 0.0 -3225.67 -11966.73 0.0 0.0 0.0 8811.74"
Ta 2.34759 1.66 0.09121 0.0 0.0 0.002389
Ta 0.0 0.0 0.09121 0.0 0.0 0.002389
Ta 0.0 1.66 2.3361 0.0 0.0 -0.010927
Ta 2.34759 0.0 2.3361 0.0 0.0 -0.010927
Ta 2.34759 1.66 4.68536 0.0 0.0 -0.004142
Ta 0.0 0.0 4.68536 0.0 0.0 -0.004142
Ta 0.0 1.66 7.03392 0.0 0.0 0.078092
Ta 2.34759 0.0 7.03392 0.0 0.0 0.078092
Ta 2.34759 1.66 9.38594 0.0 0.0 -0.152903
Ta 0.0 0.0 9.38594 0.0 0.0 -0.152903
Ta 0.0 1.66 11.73648 0.0 0.0 -0.861147
Ta 2.34759 0.0 11.73648 0.0 0.0 -0.861147
Ta 3.52139 2.49 14.08712 0.0 0.0 0.861147
Ta 1.1738 0.83 14.08712 0.0 0.0 0.861147
Ta 1.1738 2.49 16.43764 0.0 0.0 0.152903
Ta 3.52139 0.83 16.43764 0.0 0.0 0.152903
Ta 3.52139 2.49 18.78966 0.0 0.0 -0.078092
Ta 1.1738 0.83 18.78966 0.0 0.0 -0.078092
Ta 1.1738 2.49 21.13823 0.0 0.0 0.004142
Ta 3.52139 0.83 21.13823 0.0 0.0 0.004142
Ta 3.52139 2.49 23.48739 0.0 0.0 0.010927
Ta 1.1738 0.83 23.48739 0.0 0.0 0.010927
Ta 1.1738 2.49 25.73229 0.0 0.0 -0.002389
Ta 3.52139 0.83 25.73229 0.0 0.0 -0.002389
