24
Lattice="4.69519042969 0.0 0.0 0.0 3.31999993324 0.0 0.0 0.0 53.1199989319" Properties=species:S:1:pos:R:3:forces:R:3 energy=-279.79264 stress="-9276.56 -705.96 1761.7 -705.96 -7718.9800000000005 1609.3500000000001 1761.7 1609.3500000000001 -417.65000000000003"
Ta 2.34759 1.66 0.08713 0.000184 0.001656 0.000681
Ta 0.0 0.0 0.08713 0.000184 0.001656 0.000681
Ta 0.0 1.66 2.33202 0.000294 -0.000424 0.000309
Ta 2.34759 0.0 2.33202 0.000294 -0.000424 0.000309
Ta 2.34759 1.66 4.68158 -0.008643 0.001357 -0.001844
Ta 0.0 0.0 4.68158 -0.008643 0.001357 -0.001844
Ta 0.0 1.66 7.03138 0.006924 -0.020398 -0.000267
Ta 2.34759 0.0 7.03138 0.006924 -0.020398 -0.000267
Ta 2.34759 1.66 9.38023 0.01463 0.087629 0.00063
Ta 0.0 0.0 9.38023 0.01463 0.087629 0.00063
Ta 0.0 1.66 11.72434 -0.214496 -0.34877 -0.000676
Ta 2.34759 0.0 11.72434 -0.214496 -0.34877 -0.000676
Ta 4.46043 3.154 14.09926 0.214496 0.34877 0.000676
Ta 2.11284 1.494 14.09926 0.214496 0.34877 0.000676
Ta 2.11284 3.154 16.44335 -0.01463 -0.087629 -0.00063
Ta 4.46043 1.494 16.44335 -0.01463 -0.087629 -0.00063
Ta 4.46043 3.154 18.7922 -0.006924 0.020398 0.000267
Ta 2.11284 1.494 18.7922 -0.006924 0.020398 0.000267
Ta 2.11284 3.154 21.14201 0.008643 -0.001357 0.001844
Ta 4.46043 1.494 21.14201 0.008643 -0.001357 0.001844
Ta 4.46043 3.154 23.49147 -0.000294 0.000424 -0.000309
Ta 2.11284 1.494 23.49147 -0.000294 0.000424 -0.000309
Ta 2.11284 3.154 25.73637 -0.000184 -0.001656 -0.000681
Ta 4.46043 1.494 25.73637 -0.000184 -0.001656 -0.000681
