24
Lattice="4.69519042969 0.0 0.0 0.0 3.31999993324 0.0 0.0 0.0 53.1199989319" Properties=species:S:1:pos:R:3:forces:R:3 energy=-279.55564 stress="-7951.26 -1470.33 2322.88 -1470.33 -7086.45 2241.6200000000003 2322.88 2241.6200000000003 1394.24"
Ta 2.34759 1.66 0.09121 -6.8e-05 0.00218 0.002238
Ta 0.0 0.0 0.09121 -6.8e-05 0.00218 0.002238
Ta 0.0 1.66 2.3361 0.000372 -0.001531 -0.005316
Ta 2.34759 0.0 2.3361 0.000372 -0.001531 -0.005316
Ta 2.34759 1.66 4.68536 -0.011743 0.002192 -0.008604
Ta 0.0 0.0 4.68536 -0.011743 0.002192 -0.008604
Ta 0.0 1.66 7.03392 0.010535 -0.038081 0.05226
Ta 2.34759 0.0 7.03392 0.010535 -0.038081 0.05226
Ta 2.34759 1.66 9.38594 0.00905 0.147322 -0.015204
Ta 0.0 0.0 9.38594 0.00905 0.147322 -0.015204
Ta 0.0 1.66 11.73648 -0.255617 -0.52958 -0.348696
Ta 2.34759 0.0 11.73648 -0.255617 -0.52958 -0.348696
Ta 4.22567 2.988 14.08712 0.255617 0.52958 0.348696
Ta 1.87808 1.328 14.08712 0.255617 0.52958 0.348696
Ta 1.87808 2.988 16.43764 -0.00905 -0.147322 0.015204
Ta 4.22567 1.328 16.43764 -0.00905 -0.147322 0.015204
Ta 4.22567 2.988 18.78966 -0.010535 0.038081 -0.05226
Ta 1.87808 1.328 18.78966 -0.010535 0.038081 -0.05226
Ta 1.87808 2.988 21.13823 0.011743 -0.002192 0.008604
Ta 4.22567 1.328 21.13823 0.011743 -0.002192 0.008604
Ta 4.22567 2.988 23.48739 -0.000372 0.001531 0.005316
Ta 1.87808 1.328 23.48739 -0.000372 0.001531 0.005316
Ta 1.87808 2.988 25.73229 6.8e-05 -0.00218 -0.002238
Ta 4.22567 1.328 25.73229 6.8e-05 -0.00218 -0.002238
