24
Lattice="4.69519042969 0.0 0.0 0.0 3.31999993324 0.0 0.0 0.0 53.1199989319" Properties=species:S:1:pos:R:3:forces:R:3 energy=-279.79264 stress="-9277.630000000001 -706.52 -1762.12 -706.52 -7720.29 -1609.51 -1762.12 -1609.51 -420.21999999999997"
Ta 2.34759 1.66 0.0871 -0.000184 -0.001656 0.000674
Ta 0.0 0.0 0.0871 -0.000184 -0.001656 0.000674
Ta 0.0 1.66 2.332 -0.000294 0.000423 0.000306
Ta 2.34759 0.0 2.332 -0.000294 0.000423 0.000306
Ta 2.34759 1.66 4.68156 0.008643 -0.001357 -0.001853
Ta 0.0 0.0 4.68156 0.008643 -0.001357 -0.001853
Ta 0.0 1.66 7.03137 -0.006924 0.020397 -0.000275
Ta 2.34759 0.0 7.03137 -0.006924 0.020397 -0.000275
Ta 2.34759 1.66 9.38022 -0.01463 -0.087628 0.000622
Ta 0.0 0.0 9.38022 -0.01463 -0.087628 0.000622
Ta 0.0 1.66 11.72434 0.214497 0.348769 -0.000686
Ta 2.34759 0.0 11.72434 0.214497 0.348769 -0.000686
Ta 2.58235 1.826 14.09926 -0.214497 -0.348769 0.000686
Ta 0.23476 0.166 14.09926 -0.214497 -0.348769 0.000686
Ta 0.23476 1.826 16.44336 0.01463 0.087628 -0.000622
Ta 2.58235 0.166 16.44336 0.01463 0.087628 -0.000622
Ta 2.58235 1.826 18.79221 0.006924 -0.020397 0.000275
Ta 0.23476 0.166 18.79221 0.006924 -0.020397 0.000275
Ta 0.23476 1.826 21.14203 -0.008643 0.001357 0.001853
Ta 2.58235 0.166 21.14203 -0.008643 0.001357 0.001853
Ta 2.58235 1.826 23.49149 0.000294 -0.000423 -0.000306
Ta 0.23476 0.166 23.49149 0.000294 -0.000423 -0.000306
Ta 0.23476 1.826 25.7364 0.000184 0.001656 -0.000674
Ta 2.58235 0.166 25.7364 0.000184 0.001656 -0.000674
