24
Lattice="4.69519042969 0.0 0.0 0.0 3.31999993324 0.0 0.0 0.0 53.1199989319" Properties=species:S:1:pos:R:3:forces:R:3 energy=-279.206496 stress="-6761.16 -2211.9399999999996 0.0 -2211.9399999999996 -14026.06 0.0 0.0 0.0 -201.45"
Ta 2.34759 1.66 0.026 0.0 0.0 -0.000166
Ta 0.0 0.0 0.026 0.0 0.0 -0.000166
Ta 0.0 1.66 2.2705 0.0 0.0 -0.000442
Ta 2.34759 0.0 2.2705 0.0 0.0 -0.000442
Ta 2.34759 1.66 4.61955 0.0 0.0 -0.001018
Ta 0.0 0.0 4.61955 0.0 0.0 -0.001018
Ta 0.0 1.66 6.97451 0.0 0.0 0.001141
Ta 2.34759 0.0 6.97451 0.0 0.0 0.001141
Ta 2.34759 1.66 9.30496 0.0 0.0 0.000143
Ta 0.0 0.0 9.30496 0.0 0.0 0.000143
Ta 0.0 1.66 11.66343 0.0 0.0 0.002124
Ta 2.34759 0.0 11.66343 0.0 0.0 0.002124
Ta 3.52139 2.49 14.16017 0.0 0.0 -0.002124
Ta 1.1738 0.83 14.16017 0.0 0.0 -0.002124
Ta 1.1738 2.49 16.51862 0.0 0.0 -0.000143
Ta 3.52139 0.83 16.51862 0.0 0.0 -0.000143
Ta 3.52139 2.49 18.84907 0.0 0.0 -0.001141
Ta 1.1738 0.83 18.84907 0.0 0.0 -0.001141
Ta 1.1738 2.49 21.20404 0.0 0.0 0.001018
Ta 3.52139 0.83 21.20404 0.0 0.0 0.001018
Ta 3.52139 2.49 23.55299 0.0 0.0 0.000442
Ta 1.1738 0.83 23.55299 0.0 0.0 0.000442
Ta 1.1738 2.49 25.7975 0.0 0.0 0.000166
Ta 3.52139 0.83 25.7975 0.0 0.0 0.000166
