24
Lattice="4.69519042969 0.0 0.0 0.0 3.31999993324 0.0 0.0 0.0 53.1199989319" Properties=species:S:1:pos:R:3:forces:R:3 energy=-279.784296 stress="-9310.84 -724.11 -1802.3100000000002 -724.11 -7581.28 -1731.35 -1802.3100000000002 -1731.35 -145.04"
Ta 2.34759 1.66 0.09121 -0.000195 -0.00161 0.000812
Ta 0.0 0.0 0.09121 -0.000195 -0.00161 0.000812
Ta 0.0 1.66 2.3361 -0.000284 0.000353 -0.002185
Ta 2.34759 0.0 2.3361 -0.000284 0.000353 -0.002185
Ta 2.34759 1.66 4.68536 0.008799 -0.00141 -0.002306
Ta 0.0 0.0 4.68536 0.008799 -0.00141 -0.002306
Ta 0.0 1.66 7.03392 -0.006695 0.021282 0.017658
Ta 2.34759 0.0 7.03392 -0.006695 0.021282 0.017658
Ta 2.34759 1.66 9.38594 -0.014885 -0.089566 0.000145
Ta 0.0 0.0 9.38594 -0.014885 -0.089566 0.000145
Ta 0.0 1.66 11.73648 0.220002 0.367425 -0.11205
Ta 2.34759 0.0 11.73648 0.220002 0.367425 -0.11205
Ta 2.58235 1.826 14.08712 -0.220002 -0.367425 0.11205
Ta 0.23476 0.166 14.08712 -0.220002 -0.367425 0.11205
Ta 0.23476 1.826 16.43764 0.014885 0.089566 -0.000145
Ta 2.58235 0.166 16.43764 0.014885 0.089566 -0.000145
Ta 2.58235 1.826 18.78966 0.006695 -0.021282 -0.017658
Ta 0.23476 0.166 18.78966 0.006695 -0.021282 -0.017658
Ta 0.23476 1.826 21.13823 -0.008799 0.00141 0.002306
Ta 2.58235 0.166 21.13823 -0.008799 0.00141 0.002306
Ta 2.58235 1.826 23.48739 0.000284 -0.000353 0.002185
Ta 0.23476 0.166 23.48739 0.000284 -0.000353 0.002185
Ta 0.23476 1.826 25.73229 0.000195 0.00161 -0.000812
Ta 2.58235 0.166 25.73229 0.000195 0.00161 -0.000812
