30
Lattice="5.75041007996 0.0 0.0 0.0 4.69518995285 0.0 0.0 0.0 39.8400001526" Properties=species:S:1:pos:R:3:forces:R:3 energy=-345.836703 stress="-13121.27 0.0 -5634.91 0.0 -8850.33 0.0 -5634.91 0.0 -251.82"
Ta 0.9892 0.0 2.69946 0.050014 0.0 0.000282
Ta 0.00727 2.34759 4.05025 0.000899 0.0 -0.000628
Ta 2.88247 2.34759 4.05025 0.000899 0.0 -0.000628
Ta 0.17997 0.0 0.16024 0.025286 0.0 -0.000329
Ta 3.05517 0.0 0.16024 0.025286 0.0 -0.000329
Ta 1.87083 2.34759 1.30033 -0.022784 0.0 0.0001
Ta 4.74604 2.34759 1.30033 -0.022784 0.0 0.0001
Ta 3.86441 0.0 2.69946 0.050014 0.0 0.000282
Ta 0.94648 2.34759 6.74132 0.018982 0.0 0.000803
Ta 0.00117 0.0 8.1136 0.294678 0.0 -7e-05
Ta 2.87637 0.0 8.1136 0.294678 0.0 -7e-05
Ta 1.91123 0.0 5.39201 -0.117735 0.0 -0.000184
Ta 4.78644 0.0 5.39201 -0.117735 0.0 -0.000184
Ta 3.82169 2.34759 6.74132 0.018982 0.0 0.000803
Ta 1.9168 2.34759 9.44202 0.717113 0.0 3.7e-05
Ta 4.79201 2.34759 9.44202 0.717113 0.0 3.7e-05
Ta 1.53227 0.0 10.88381 -0.754498 0.0 3.7e-05
Ta 0.58696 2.34759 12.229 -0.304417 0.0 -0.000673
Ta 3.46216 2.34759 12.229 -0.304417 0.0 -0.000673
Ta 4.40748 0.0 10.88381 -0.754498 0.0 3.7e-05
Ta 1.52617 2.34759 14.92821 0.111991 0.0 0.000677
Ta 0.54424 0.0 16.27854 0.000794 0.0 -0.00097
Ta 3.41944 0.0 16.27854 0.000794 0.0 -0.00097
Ta 2.53781 2.34759 17.67931 -0.020042 0.0 -0.001378
Ta 5.41302 2.34759 17.67931 -0.020042 0.0 -0.001378
Ta 2.49741 0.0 13.59913 0.010142 0.0 0.001166
Ta 5.37262 0.0 13.59913 0.010142 0.0 0.001166
Ta 4.40138 2.34759 14.92821 0.111991 0.0 0.000677
Ta 1.35347 0.0 18.81813 -0.010421 0.0 0.001129
Ta 4.22868 0.0 18.81813 -0.010421 0.0 0.001129
