30
Lattice="5.75041007996 0.0 0.0 0.0 4.69518995285 0.0 0.0 0.0 39.8400001526" Properties=species:S:1:pos:R:3:forces:R:3 energy=-345.795524 stress="-11480.130000000001 0.0 -5932.89 0.0 -5542.72 0.0 -5932.89 0.0 3462.38"
Ta 0.9892 0.0 2.7203 0.054393 0.0 0.051613
Ta 0.00727 2.34759 4.07239 0.011422 0.0 0.01044
Ta 2.88247 2.34759 4.07239 0.011422 0.0 0.01044
Ta 0.17997 0.0 0.18449 0.010146 0.0 -0.022298
Ta 3.05517 0.0 0.18449 0.010146 0.0 -0.022298
Ta 1.87083 2.34759 1.32776 -0.011079 0.0 -0.021669
Ta 4.74604 2.34759 1.32776 -0.011079 0.0 -0.021669
Ta 3.86441 0.0 2.7203 0.054393 0.0 0.051613
Ta 0.94648 2.34759 6.77133 0.038911 0.0 -0.069106
Ta 0.00117 0.0 8.1367 0.287747 0.0 -0.1262
Ta 2.87637 0.0 8.1367 0.287747 0.0 -0.1262
Ta 1.91123 0.0 5.41489 -0.141892 0.0 0.03774
Ta 4.78644 0.0 5.41489 -0.141892 0.0 0.03774
Ta 3.82169 2.34759 6.77133 0.038911 0.0 -0.069106
Ta 1.9168 2.34759 9.48769 0.847487 0.0 -0.484094
Ta 4.79201 2.34759 9.48769 0.847487 0.0 -0.484094
Ta 1.53227 0.0 10.83871 -0.88891 0.0 0.460491
Ta 0.58696 2.34759 12.20409 -0.291722 0.0 0.122028
Ta 3.46216 2.34759 12.20409 -0.291722 0.0 0.122028
Ta 4.40748 0.0 10.83871 -0.88891 0.0 0.460491
Ta 1.52617 2.34759 14.90296 0.134409 0.0 -0.060843
Ta 0.54424 0.0 16.25507 -0.007639 0.0 -0.054033
Ta 3.41944 0.0 16.25507 -0.007639 0.0 -0.054033
Ta 2.53781 2.34759 17.64762 -0.034954 0.0 0.011635
Ta 5.41302 2.34759 17.64762 -0.034954 0.0 0.011635
Ta 2.49741 0.0 13.56045 -0.007731 0.0 0.131746
Ta 5.37262 0.0 13.56045 -0.007731 0.0 0.131746
Ta 4.40138 2.34759 14.90296 0.134409 0.0 -0.060843
Ta 1.35347 0.0 18.79091 -0.000588 0.0 0.012548
Ta 4.22868 0.0 18.79091 -0.000588 0.0 0.012548
