30
Lattice="5.75041007996 0.0 0.0 0.0 4.69518995285 0.0 0.0 0.0 39.8400001526" Properties=species:S:1:pos:R:3:forces:R:3 energy=-345.383994 stress="-14034.28 0.0 -4327.110000000001 0.0 -7778.13 0.0 -4327.110000000001 0.0 -145.71"
Ta 0.9892 0.0 2.68561 0.041017 0.0 -0.001969
Ta 0.00727 2.34759 4.03469 0.0126 0.0 -0.000764
Ta 2.88247 2.34759 4.03469 0.0126 0.0 -0.000764
Ta 0.17997 0.0 0.14398 0.044685 0.0 -0.000337
Ta 3.05517 0.0 0.14398 0.044685 0.0 -0.000337
Ta 1.87083 2.34759 1.28198 -0.034873 0.0 -0.000989
Ta 4.74604 2.34759 1.28198 -0.034873 0.0 -0.000989
Ta 3.86441 0.0 2.68561 0.041017 0.0 -0.001969
Ta 0.94648 2.34759 6.72523 0.015472 0.0 9.3e-05
Ta 0.00117 0.0 8.09686 0.374311 0.0 -0.000718
Ta 2.87637 0.0 8.09686 0.374311 0.0 -0.000718
Ta 1.91123 0.0 5.37077 -0.13875 0.0 0.000234
Ta 4.78644 0.0 5.37077 -0.13875 0.0 0.000234
Ta 3.82169 2.34759 6.72523 0.015472 0.0 9.3e-05
Ta 1.9168 2.34759 9.42312 0.226851 0.0 -0.000505
Ta 4.79201 2.34759 9.42312 0.226851 0.0 -0.000505
Ta 1.81979 0.0 10.90137 -0.264136 0.0 0.001111
Ta 0.87448 2.34759 12.24514 -0.397596 0.0 -1.3e-05
Ta 3.74968 2.34759 12.24514 -0.397596 0.0 -1.3e-05
Ta 4.695 0.0 10.90137 -0.264136 0.0 0.001111
Ta 1.81369 2.34759 14.95092 0.137584 0.0 0.001218
Ta 0.83176 0.0 16.29656 -0.006289 0.0 -0.001428
Ta 3.70696 0.0 16.29656 -0.006289 0.0 -0.001428
Ta 2.82533 2.34759 17.69976 -0.018746 0.0 0.000228
Ta 5.70054 2.34759 17.69976 -0.018746 0.0 0.000228
Ta 2.78493 0.0 13.62057 0.025174 0.0 0.001582
Ta 5.66014 0.0 13.62057 0.025174 0.0 0.001582
Ta 4.6889 2.34759 14.95092 0.137584 0.0 0.001218
Ta 1.64099 0.0 18.83881 -0.017303 0.0 0.002258
Ta 4.5162 0.0 18.83881 -0.017303 0.0 0.002258
