30
Lattice="5.75041007996 0.0 0.0 0.0 4.69518995285 0.0 0.0 0.0 39.8400001526" Properties=species:S:1:pos:R:3:forces:R:3 energy=-345.281949 stress="-11560.39 0.0 -4653.08 0.0 -2434.16 0.0 -4653.08 0.0 6566.94"
Ta 0.9892 0.0 2.7203 0.050194 0.0 0.096189
Ta 0.00727 2.34759 4.07239 0.024666 0.0 0.022454
Ta 2.88247 2.34759 4.07239 0.024666 0.0 0.022454
Ta 0.17997 0.0 0.18449 0.022221 0.0 -0.035876
Ta 3.05517 0.0 0.18449 0.022221 0.0 -0.035876
Ta 1.87083 2.34759 1.32776 -0.018007 0.0 -0.028654
Ta 4.74604 2.34759 1.32776 -0.018007 0.0 -0.028654
Ta 3.86441 0.0 2.7203 0.050194 0.0 0.096189
Ta 0.94648 2.34759 6.77133 0.035097 0.0 -0.05687
Ta 0.00117 0.0 8.1367 0.39639 0.0 -0.242712
Ta 2.87637 0.0 8.1367 0.39639 0.0 -0.242712
Ta 1.91123 0.0 5.41489 -0.174932 0.0 -0.025096
Ta 4.78644 0.0 5.41489 -0.174932 0.0 -0.025096
Ta 3.82169 2.34759 6.77133 0.035097 0.0 -0.05687
Ta 1.9168 2.34759 9.48769 0.314196 0.0 -0.724221
Ta 4.79201 2.34759 9.48769 0.314196 0.0 -0.724221
Ta 1.81979 0.0 10.83871 -0.356224 0.0 0.668088
Ta 0.87448 2.34759 12.20409 -0.414394 0.0 0.224563
Ta 3.74968 2.34759 12.20409 -0.414394 0.0 0.224563
Ta 4.695 0.0 10.83871 -0.356224 0.0 0.668088
Ta 1.81369 2.34759 14.90296 0.168267 0.0 -0.014012
Ta 0.83176 0.0 16.25507 -0.017608 0.0 -0.08784
Ta 3.70696 0.0 16.25507 -0.017608 0.0 -0.08784
Ta 2.82533 2.34759 17.64762 -0.037555 0.0 0.00518
Ta 5.70054 2.34759 17.64762 -0.037555 0.0 0.00518
Ta 2.78493 0.0 13.56045 0.011122 0.0 0.171223
Ta 5.66014 0.0 13.56045 0.011122 0.0 0.171223
Ta 4.6889 2.34759 14.90296 0.168267 0.0 -0.014012
Ta 1.64099 0.0 18.79091 -0.003433 0.0 0.027583
Ta 4.5162 0.0 18.79091 -0.003433 0.0 0.027583
