30
Lattice="5.75041007996 0.0 0.0 0.0 4.69518995285 0.0 0.0 0.0 39.8400001526" Properties=species:S:1:pos:R:3:forces:R:3 energy=-346.593523 stress="-9414.98 0.0 -281.99 0.0 -11857.62 0.0 -281.99 0.0 174.60999999999999"
Ta 0.9892 0.0 2.7203 0.00126 0.0 -0.000952
Ta 0.00727 2.34759 4.07239 0.002425 0.0 -0.000721
Ta 2.88247 2.34759 4.07239 0.002425 0.0 -0.000721
Ta 0.17997 0.0 0.18449 0.003483 0.0 -0.001569
Ta 3.05517 0.0 0.18449 0.003483 0.0 -0.001569
Ta 1.87083 2.34759 1.32776 -0.001158 0.0 -0.001292
Ta 4.74604 2.34759 1.32776 -0.001158 0.0 -0.001292
Ta 3.86441 0.0 2.7203 0.00126 0.0 -0.000952
Ta 0.94648 2.34759 6.77133 -0.000275 0.0 -0.000556
Ta 0.00117 0.0 8.1367 0.001745 0.0 0.000187
Ta 2.87637 0.0 8.1367 0.001745 0.0 0.000187
Ta 1.91123 0.0 5.41489 0.00171 0.0 -0.000333
Ta 4.78644 0.0 5.41489 0.00171 0.0 -0.000333
Ta 3.82169 2.34759 6.77133 -0.000275 0.0 -0.000556
Ta 1.9168 2.34759 9.48769 0.0 0.0 0.0
Ta 4.79201 2.34759 9.48769 0.0 0.0 0.0
Ta 0.95723 0.0 10.83871 -0.001745 0.0 -0.000187
Ta 0.01192 2.34759 12.20409 0.000275 0.0 0.000556
Ta 2.88712 2.34759 12.20409 0.000275 0.0 0.000556
Ta 3.83244 0.0 10.83871 -0.001745 0.0 -0.000187
Ta 0.95113 2.34759 14.90296 -0.002425 0.0 0.000721
Ta 5.71961 0.0 16.25507 -0.00126 0.0 0.000952
Ta 2.8444 0.0 16.25507 -0.00126 0.0 0.000952
Ta 1.96277 2.34759 17.64762 0.001158 0.0 0.001292
Ta 4.83798 2.34759 17.64762 0.001158 0.0 0.001292
Ta 1.92237 0.0 13.56045 -0.00171 0.0 0.000333
Ta 4.79758 0.0 13.56045 -0.00171 0.0 0.000333
Ta 3.82634 2.34759 14.90296 -0.002425 0.0 0.000721
Ta 0.77843 0.0 18.79091 -0.003483 0.0 0.001569
Ta 3.65364 0.0 18.79091 -0.003483 0.0 0.001569
