30
Lattice="5.75041007996 0.0 0.0 0.0 4.69518995285 0.0 0.0 0.0 39.8400001526" Properties=species:S:1:pos:R:3:forces:R:3 energy=-345.175835 stress="-13147.16 0.0 -3780.86 0.0 -8634.359999999999 0.0 -3780.86 0.0 -262.94"
Ta 0.9892 0.0 2.67612 0.024552 0.0 -0.00195
Ta 0.00727 2.34759 4.02628 0.020645 0.0 9.3e-05
Ta 2.88247 2.34759 4.02628 0.020645 0.0 9.3e-05
Ta 0.17997 0.0 0.13381 0.04617 0.0 -0.000386
Ta 3.05517 0.0 0.13381 0.04617 0.0 -0.000386
Ta 1.87083 2.34759 1.2728 -0.032821 0.0 -0.001196
Ta 4.74604 2.34759 1.2728 -0.032821 0.0 -0.001196
Ta 3.86441 0.0 2.67612 0.024552 0.0 -0.00195
Ta 0.94648 2.34759 6.72012 0.031811 0.0 0.000572
Ta 0.00117 0.0 8.09323 0.426675 0.0 0.000202
Ta 2.87637 0.0 8.09323 0.426675 0.0 0.000202
Ta 1.91123 0.0 5.35809 -0.1254 0.0 0.000587
Ta 4.78644 0.0 5.35809 -0.1254 0.0 0.000587
Ta 3.82169 2.34759 6.72012 0.031811 0.0 0.000572
Ta 1.9168 2.34759 9.40413 -0.175762 0.0 0.000278
Ta 4.79201 2.34759 9.40413 -0.175762 0.0 0.000278
Ta 2.10731 0.0 10.91795 0.187758 0.0 0.000468
Ta 1.162 2.34759 12.2439 -0.520663 0.0 0.000295
Ta 4.0372 2.34759 12.2439 -0.520663 0.0 0.000295
Ta 4.98252 0.0 10.91795 0.187758 0.0 0.000468
Ta 2.10121 2.34759 14.96595 0.131217 0.0 0.000175
Ta 1.11928 0.0 16.30656 -0.015432 0.0 6e-06
Ta 3.99448 0.0 16.30656 -0.015432 0.0 6e-06
Ta 3.11285 2.34759 17.71541 0.007977 0.0 0.000401
Ta 0.23765 2.34759 17.71541 0.007977 0.0 0.000401
Ta 3.07245 0.0 13.62798 0.021452 0.0 0.000107
Ta 0.19725 0.0 13.62798 0.021452 0.0 0.000107
Ta 4.97642 2.34759 14.96595 0.131217 0.0 0.000175
Ta 1.92851 0.0 18.85304 -0.028176 0.0 0.00035
Ta 4.80372 0.0 18.85304 -0.028176 0.0 0.00035
