40
Lattice="4.69518993616 0.0 0.0 0.0 8.13231015027 0.0 0.0 0.0 36.52" Properties=species:S:1:pos:R:3:forces:R:3 energy=-459.216162 stress="-27041.87 0.0 0.0 0.0 -26744.41 19.599999999999998 0.0 19.599999999999998 -29530.539999999997"
Ta 2.34759 6.77692 0.9584 0.0 0.00104 0.266836
Ta 0.0 2.71077 0.9584 0.0 0.00104 0.266836
Ta 2.34759 4.06615 0.0 0.0 -0.000781 2.01398
Ta 2.34759 4.06615 2.8752 0.0 0.002127 -0.707743
Ta 0.0 5.42154 1.9168 0.0 -0.0035 -1.222398
Ta 2.34759 6.77692 3.83361 0.0 0.000551 -0.353108
Ta 0.0 0.0 0.0 0.0 -0.000781 2.01398
Ta 0.0 0.0 2.8752 0.0 0.002127 -0.707743
Ta 2.34759 1.35538 1.9168 0.0 -0.0035 -1.222398
Ta 0.0 2.71077 3.83361 0.0 0.000551 -0.353108
Ta 0.0 5.42154 4.79201 0.0 0.001693 -0.22097
Ta 2.34759 6.77692 6.70881 0.0 0.000422 -0.070866
Ta 2.34759 1.35538 4.79201 0.0 0.001693 -0.22097
Ta 0.0 2.71077 6.70881 0.0 0.000422 -0.070866
Ta 2.34759 4.06615 5.75041 0.0 -0.000841 0.251247
Ta 2.34759 4.06615 8.62561 0.0 -0.000554 0.023395
Ta 0.0 5.42154 7.66721 0.0 -0.000869 -0.03418
Ta 0.0 0.0 5.75041 0.0 -0.000841 0.251247
Ta 0.0 0.0 8.62561 0.0 -0.000554 0.023395
Ta 2.34759 1.35538 7.66721 0.0 -0.000869 -0.03418
Ta 0.0 5.42154 10.5424 0.0 0.000869 0.03418
Ta 2.34759 6.77692 9.58401 0.0 0.000554 -0.023395
Ta 2.34759 6.77692 12.4592 0.0 0.000841 -0.251247
Ta 2.34759 1.35538 10.5424 0.0 0.000869 0.03418
Ta 0.0 2.71077 9.58401 0.0 0.000554 -0.023395
Ta 0.0 2.71077 12.4592 0.0 0.000841 -0.251247
Ta 2.34759 4.06615 11.5008 0.0 -0.000422 0.070866
Ta 0.0 5.42154 13.4176 0.0 -0.001693 0.22097
Ta 0.0 0.0 11.5008 0.0 -0.000422 0.070866
Ta 2.34759 1.35538 13.4176 0.0 -0.001693 0.22097
Ta 2.34759 4.06615 14.376 0.0 -0.000551 0.353108
Ta 0.0 5.42154 16.2928 0.0 0.0035 1.222398
Ta 2.34759 6.77692 15.3344 0.0 -0.002127 0.707743
Ta 2.34759 6.77692 18.2096 0.0 0.000781 -2.01398
Ta 0.0 0.0 14.376 0.0 -0.000551 0.353108
Ta 2.34759 1.35538 16.2928 0.0 0.0035 1.222398
Ta 0.0 2.71077 15.3344 0.0 -0.002127 0.707743
Ta 0.0 2.71077 18.2096 0.0 0.000781 -2.01398
Ta 2.34759 4.06615 17.2512 0.0 -0.00104 -0.266836
Ta 0.0 0.0 17.2512 0.0 -0.00104 -0.266836
