30
Lattice="5.75040976524 0.0 0.0 0.0 4.69518993616 0.0 0.0 0.0 39.84" Properties=species:S:1:pos:R:3:forces:R:3 energy=-345.744506 stress="-26530.08 0.0 -2915.02 0.0 -25603.77 0.0 -2915.02 0.0 -21262.54"
Ta 0.9584 0.0 2.71077 0.048753 0.0 -0.789488
Ta 0.0 2.34759 4.06615 0.000543 0.0 0.103698
Ta 2.8752 2.34759 4.06615 0.000543 0.0 0.103698
Ta 0.0 0.0 0.0 0.302653 0.0 1.1858
Ta 2.8752 0.0 0.0 0.302653 0.0 1.1858
Ta 1.9168 2.34759 1.35538 -0.326078 0.0 -0.402735
Ta 4.79201 2.34759 1.35538 -0.326078 0.0 -0.402735
Ta 3.83361 0.0 2.71077 0.048753 0.0 -0.789488
Ta 0.9584 2.34759 6.77692 -0.058605 0.0 -0.050501
Ta 0.0 0.0 8.13231 0.022525 0.0 0.111412
Ta 2.8752 0.0 8.13231 0.022525 0.0 0.111412
Ta 1.9168 0.0 5.42154 0.017191 0.0 -0.139574
Ta 4.79201 0.0 5.42154 0.017191 0.0 -0.139574
Ta 3.83361 2.34759 6.77692 -0.058605 0.0 -0.050501
Ta 0.9584 0.0 10.8431 -0.022525 0.0 -0.111412
Ta 0.0 2.34759 12.1985 0.058605 0.0 0.050501
Ta 2.8752 2.34759 12.1985 0.058605 0.0 0.050501
Ta 1.9168 2.34759 9.48769 0.0 0.0 0.0
Ta 4.79201 2.34759 9.48769 0.0 0.0 0.0
Ta 3.83361 0.0 10.8431 -0.022525 0.0 -0.111412
Ta 0.9584 2.34759 14.9092 -0.000543 0.0 -0.103698
Ta 0.0 0.0 16.2646 -0.048753 0.0 0.789488
Ta 2.8752 0.0 16.2646 -0.048753 0.0 0.789488
Ta 1.9168 2.34759 17.62 0.326078 0.0 0.402735
Ta 4.79201 2.34759 17.62 0.326078 0.0 0.402735
Ta 1.9168 0.0 13.5538 -0.017191 0.0 0.139574
Ta 4.79201 0.0 13.5538 -0.017191 0.0 0.139574
Ta 3.83361 2.34759 14.9092 -0.000543 0.0 -0.103698
Ta 0.9584 0.0 18.9754 -0.302653 0.0 -1.1858
Ta 3.83361 0.0 18.9754 -0.302653 0.0 -1.1858
