24
Lattice="4.69519013405 0.0 0.0 0.0 3.32 0.0 0.0 0.0 53.12" Properties=species:S:1:pos:R:3:forces:R:3 energy=-279.635146 stress="-21250.23 0.0 0.0 0.0 -20345.210000000003 0.0 0.0 0.0 -14676.96"
Ta 2.34759 1.66 0.0 0.0 0.0 0.48507
Ta 0.0 0.0 0.0 0.0 0.0 0.48507
Ta 0.0 1.66 2.34759 0.0 0.0 -0.412878
Ta 2.34759 0.0 2.34759 0.0 0.0 -0.412878
Ta 2.34759 1.66 4.69519 0.0 0.0 -0.096961
Ta 0.0 0.0 4.69519 0.0 0.0 -0.096961
Ta 0.0 1.66 7.04278 0.0 0.0 0.008179
Ta 2.34759 0.0 7.04278 0.0 0.0 0.008179
Ta 2.34759 1.66 9.39038 0.0 0.0 -0.003881
Ta 0.0 0.0 9.39038 0.0 0.0 -0.003881
Ta 0.0 1.66 11.738 0.0 0.0 0.002591
Ta 2.34759 0.0 11.738 0.0 0.0 0.002591
Ta 2.34759 1.66 14.0856 0.0 0.0 -0.002591
Ta 0.0 0.0 14.0856 0.0 0.0 -0.002591
Ta 0.0 1.66 16.4332 0.0 0.0 0.003881
Ta 2.34759 0.0 16.4332 0.0 0.0 0.003881
Ta 2.34759 1.66 18.7808 0.0 0.0 -0.008179
Ta 0.0 0.0 18.7808 0.0 0.0 -0.008179
Ta 0.0 1.66 21.1284 0.0 0.0 0.096961
Ta 2.34759 0.0 21.1284 0.0 0.0 0.096961
Ta 2.34759 1.66 23.4759 0.0 0.0 0.412878
Ta 0.0 0.0 23.4759 0.0 0.0 0.412878
Ta 0.0 1.66 25.8235 0.0 0.0 -0.48507
Ta 2.34759 0.0 25.8235 0.0 0.0 -0.48507
