48
Lattice="6.64001325846 0.0 0.0 0.0 6.64001325846 0.0 0.0 0.0 39.84" Properties=species:S:1:pos:R:3:forces:R:3 energy=-555.359452 stress="-6438.73 0.0 0.0 0.0 -6438.73 0.0 0.0 0.0 -286.5"
Ta 1.66001 1.66 1.62137 0.0 0.0 -3e-05
Ta 0.0 0.0 0.17247 0.0 0.0 0.00038
Ta 1.66001 1.66 4.98756 0.0 0.0 0.000833
Ta 0.0 0.0 3.27999 0.0 0.0 0.000359
Ta 1.66001 1.66 8.28844 0.0 0.0 0.00041
Ta 0.0 0.0 6.62582 0.0 0.0 6.6e-05
Ta 1.66001 1.66 11.63419 0.0 0.0 -6.6e-05
Ta 0.0 0.0 9.97156 0.0 0.0 -0.00041
Ta 1.66001 1.66 14.98001 0.0 0.0 -0.000359
Ta 0.0 0.0 13.27244 0.0 0.0 -0.000833
Ta 1.66001 1.66 18.08753 0.0 0.0 -0.00038
Ta 0.0 0.0 16.63864 0.0 0.0 3e-05
Ta 1.66001 4.98001 1.62137 0.0 0.0 -3e-05
Ta 0.0 3.32001 0.17247 0.0 0.0 0.00038
Ta 1.66001 4.98001 4.98756 0.0 0.0 0.000833
Ta 0.0 3.32001 3.27999 0.0 0.0 0.000359
Ta 1.66001 4.98001 8.28844 0.0 0.0 0.00041
Ta 0.0 3.32001 6.62582 0.0 0.0 6.6e-05
Ta 1.66001 4.98001 11.63419 0.0 0.0 -6.6e-05
Ta 0.0 3.32001 9.97156 0.0 0.0 -0.00041
Ta 1.66001 4.98001 14.98001 0.0 0.0 -0.000359
Ta 0.0 3.32001 13.27244 0.0 0.0 -0.000833
Ta 1.66001 4.98001 18.08753 0.0 0.0 -0.00038
Ta 0.0 3.32001 16.63864 0.0 0.0 3e-05
Ta 4.98002 1.66 1.62137 0.0 0.0 -3e-05
Ta 3.32001 0.0 0.17247 0.0 0.0 0.00038
Ta 4.98002 1.66 4.98756 0.0 0.0 0.000833
Ta 3.32001 0.0 3.27999 0.0 0.0 0.000359
Ta 4.98002 1.66 8.28844 0.0 0.0 0.00041
Ta 3.32001 0.0 6.62582 0.0 0.0 6.6e-05
Ta 4.98002 1.66 11.63419 0.0 0.0 -6.6e-05
Ta 3.32001 0.0 9.97156 0.0 0.0 -0.00041
Ta 4.98002 1.66 14.98001 0.0 0.0 -0.000359
Ta 3.32001 0.0 13.27244 0.0 0.0 -0.000833
Ta 4.98002 1.66 18.08753 0.0 0.0 -0.00038
Ta 3.32001 0.0 16.63864 0.0 0.0 3e-05
Ta 4.98002 4.98001 1.62137 0.0 0.0 -3e-05
Ta 3.32001 3.32001 0.17247 0.0 0.0 0.00038
Ta 4.98002 4.98001 4.98756 0.0 0.0 0.000833
Ta 3.32001 3.32001 3.27999 0.0 0.0 0.000359
Ta 4.98002 4.98001 8.28844 0.0 0.0 0.00041
Ta 3.32001 3.32001 6.62582 0.0 0.0 6.6e-05
Ta 4.98002 4.98001 11.63419 0.0 0.0 -6.6e-05
Ta 3.32001 3.32001 9.97156 0.0 0.0 -0.00041
Ta 4.98002 4.98001 14.98001 0.0 0.0 -0.000359
Ta 3.32001 3.32001 13.27244 0.0 0.0 -0.000833
Ta 4.98002 4.98001 18.08753 0.0 0.0 -0.00038
Ta 3.32001 3.32001 16.63864 0.0 0.0 3e-05
