24
Lattice="4.69519013405 0.0 0.0 0.0 3.32 0.0 0.0 0.0 53.12" Properties=species:S:1:pos:R:3:forces:R:3 energy=-279.911828 stress="-9651.84 0.0 0.0 0.0 -7622.87 0.0 0.0 0.0 -272.58"
Ta 2.34759 1.66 0.09121 0.0 0.0 0.001057
Ta 0.0 0.0 0.09121 0.0 0.0 0.001057
Ta 0.0 1.66 2.3361 0.0 0.0 0.000335
Ta 2.34759 0.0 2.3361 0.0 0.0 0.000335
Ta 2.34759 1.66 4.68536 0.0 0.0 0.000274
Ta 0.0 0.0 4.68536 0.0 0.0 0.000274
Ta 0.0 1.66 7.03392 0.0 0.0 0.000349
Ta 2.34759 0.0 7.03392 0.0 0.0 0.000349
Ta 2.34759 1.66 9.38594 0.0 0.0 -0.000481
Ta 0.0 0.0 9.38594 0.0 0.0 -0.000481
Ta 0.0 1.66 11.73648 0.0 0.0 -0.000487
Ta 2.34759 0.0 11.73648 0.0 0.0 -0.000487
Ta 2.34759 1.66 14.08712 0.0 0.0 0.000487
Ta 0.0 0.0 14.08712 0.0 0.0 0.000487
Ta 0.0 1.66 16.43764 0.0 0.0 0.000481
Ta 2.34759 0.0 16.43764 0.0 0.0 0.000481
Ta 2.34759 1.66 18.78966 0.0 0.0 -0.000349
Ta 0.0 0.0 18.78966 0.0 0.0 -0.000349
Ta 0.0 1.66 21.13823 0.0 0.0 -0.000274
Ta 2.34759 0.0 21.13823 0.0 0.0 -0.000274
Ta 2.34759 1.66 23.48739 0.0 0.0 -0.000335
Ta 0.0 0.0 23.48739 0.0 0.0 -0.000335
Ta 0.0 1.66 25.73229 0.0 0.0 -0.001057
Ta 2.34759 0.0 25.73229 0.0 0.0 -0.001057
