30
Lattice="5.75040976524 0.0 0.0 0.0 4.69518993616 0.0 0.0 0.0 39.84" Properties=species:S:1:pos:R:3:forces:R:3 energy=-346.592525 stress="-9399.49 0.0 -208.25 0.0 -11819.32 0.0 -208.25 0.0 132.24"
Ta 0.9892 0.0 2.7203 0.001551 0.0 -0.000488
Ta 0.00727 2.34759 4.07239 0.001169 0.0 -0.000766
Ta 2.88247 2.34759 4.07239 0.001169 0.0 -0.000766
Ta 0.17997 0.0 0.18449 0.002466 0.0 -0.001108
Ta 3.05517 0.0 0.18449 0.002466 0.0 -0.001108
Ta 1.87083 2.34759 1.32776 -0.000874 0.0 -0.001517
Ta 4.74604 2.34759 1.32776 -0.000874 0.0 -0.001517
Ta 3.86441 0.0 2.7203 0.001551 0.0 -0.000488
Ta 0.94648 2.34759 6.77133 0.00042 0.0 -0.000294
Ta 0.00117 0.0 8.1367 0.000452 0.0 9.6e-05
Ta 2.87637 0.0 8.1367 0.000452 0.0 9.6e-05
Ta 1.91123 0.0 5.41489 0.001544 0.0 -5.7e-05
Ta 4.78644 0.0 5.41489 0.001544 0.0 -5.7e-05
Ta 3.82169 2.34759 6.77133 0.00042 0.0 -0.000294
Ta 0.95723 0.0 10.83871 -0.000452 0.0 -9.6e-05
Ta 0.01192 2.34759 12.20409 -0.00042 0.0 0.000294
Ta 2.88712 2.34759 12.20409 -0.00042 0.0 0.000294
Ta 1.9168 2.34759 9.48769 0.0 0.0 0.0
Ta 4.79201 2.34759 9.48769 0.0 0.0 0.0
Ta 3.83244 0.0 10.83871 -0.000452 0.0 -9.6e-05
Ta 0.95113 2.34759 14.90296 -0.001169 0.0 0.000766
Ta 5.71961 0.0 16.25507 -0.001551 0.0 0.000488
Ta 2.8444 0.0 16.25507 -0.001551 0.0 0.000488
Ta 1.96277 2.34759 17.64762 0.000874 0.0 0.001517
Ta 4.83798 2.34759 17.64762 0.000874 0.0 0.001517
Ta 1.92237 0.0 13.56045 -0.001544 0.0 5.7e-05
Ta 4.79758 0.0 13.56045 -0.001544 0.0 5.7e-05
Ta 3.82634 2.34759 14.90296 -0.001169 0.0 0.000766
Ta 0.77843 0.0 18.79091 -0.002466 0.0 0.001108
Ta 3.65364 0.0 18.79091 -0.002466 0.0 0.001108
