40
Lattice="4.69518993616 0.0 0.0 0.0 8.13231015027 0.0 0.0 0.0 36.52" Properties=species:S:1:pos:R:3:forces:R:3 energy=-461.144076 stress="-6214.78 0.0 0.0 0.0 -6110.78 11.43 0.0 11.43 -124.44"
Ta 2.34759 6.77677 1.02996 0.0 4.9e-05 0.000956
Ta 0.0 2.71062 1.02996 0.0 4.9e-05 0.000956
Ta 2.34759 4.06617 0.30181 0.0 -0.000436 0.000304
Ta 2.34759 4.0661 2.9333 0.0 0.000405 -0.000621
Ta 0.0 5.42161 1.81457 0.0 -0.000256 -0.000454
Ta 2.34759 6.77673 3.82136 0.0 0.000483 0.001188
Ta 0.0 2e-05 0.30181 0.0 -0.000436 0.000304
Ta 0.0 8.13226 2.9333 0.0 0.000405 -0.000621
Ta 2.34759 1.35545 1.81457 0.0 -0.000256 -0.000454
Ta 0.0 2.71058 3.82136 0.0 0.000483 0.001188
Ta 0.0 5.42171 4.75865 0.0 -0.000286 3.9e-05
Ta 2.34759 6.77697 6.68474 0.0 0.000174 0.001115
Ta 2.34759 1.35555 4.75865 0.0 -0.000286 3.9e-05
Ta 0.0 2.71082 6.68474 0.0 0.000174 0.001115
Ta 2.34759 4.06631 5.76725 0.0 0.000154 -0.0006
Ta 2.34759 4.0661 8.64133 0.0 0.000311 0.000365
Ta 0.0 5.42175 7.66351 0.0 -0.000264 -0.00059
Ta 0.0 0.00016 5.76725 0.0 0.000154 -0.0006
Ta 0.0 -5e-05 8.64133 0.0 0.000311 0.000365
Ta 2.34759 1.35559 7.66351 0.0 -0.000264 -0.00059
Ta 0.0 5.42176 10.5454 0.0 -0.000164 0.000261
Ta 2.34759 6.77681 9.56856 0.0 0.000347 -0.001383
Ta 2.34759 6.77657 12.44226 0.0 0.000206 0.000791
Ta 2.34759 1.3556 10.5454 0.0 -0.000164 0.000261
Ta 0.0 2.71066 9.56856 0.0 0.000347 -0.001383
Ta 0.0 2.71042 12.44226 0.0 0.000206 0.000791
Ta 2.34759 4.06598 11.52478 0.0 0.000279 -0.00135
Ta 0.0 5.42175 13.45118 0.0 -0.000329 -0.001033
Ta 0.0 8.13214 11.52478 0.0 0.000279 -0.00135
Ta 2.34759 1.35559 13.45118 0.0 -0.000329 -0.001033
Ta 2.34759 4.06624 14.38799 0.0 0.000351 -0.000576
Ta 0.0 5.4218 16.39523 0.0 -0.000453 0.0004
Ta 2.34759 6.77687 15.2766 0.0 0.000189 0.001532
Ta 2.34759 6.77657 17.90814 0.0 -0.000603 -0.00011
Ta 0.0 9e-05 14.38799 0.0 0.000351 -0.000576
Ta 2.34759 1.35564 16.39523 0.0 -0.000453 0.0004
Ta 0.0 2.71072 15.2766 0.0 0.000189 0.001532
Ta 0.0 2.71042 17.90814 0.0 -0.000603 -0.00011
Ta 2.34759 4.06617 17.17945 0.0 -0.000157 -0.000235
Ta 0.0 2e-05 17.17945 0.0 -0.000157 -0.000235
