# LAMMPS data file written by OVITO Pro 3.16.1

2000 atoms
2 atom types

0.0 40.0 xlo xhi
0.0 40.0 ylo yhi
0.0 40.0 zlo zhi

Masses

1 30.974   # P
2 114.818  # In

Atoms  # atomic

1 1 1.9481890141 2.0360139431 2.0184587364
2 2 4.0916253038 0.0235549948 0.1064034681
3 1 5.8651410278 1.9474148594 2.0201837038
4 1 10.127043076 2.005373298 1.9132033526
5 2 11.886991255 0.1621059122 0.0045529034
6 2 8.0665018764 3.9346878936 0.12575236
7 2 8.1091475883 3.9054171269 3.9113267991
8 1 14.045253501 2.0177023796 2.1555385155
9 2 12.020757906 3.9446291508 0.0220482328
10 1 17.951502273 1.9675727522 1.9319445389
11 1 22.027296692 2.0924570316 1.7551871289
12 1 26.035760813 1.9566739562 1.9874224421
13 1 30.105736473 1.9302838266 2.1364989821
14 2 31.902980328 0.0304159742 0.0870613644
15 1 33.897991535 1.972095343 2.0589794663
16 1 38.047025099 1.8647979897 1.7873713338
17 2 39.946518136 3.9798544757 0.0468045081
18 1 1.9717741137 6.037811664 1.9203689263
19 1 6.0512643711 5.9638872599 1.9003941429
20 1 10.045006254 5.922526945 2.0588726728
21 2 8.1663186033 7.9461430847 0.0114920505
22 1 13.929038276 6.0502231698 1.9083449312
23 2 15.841694043 7.9114030754 0.0665353767
24 1 18.006685023 6.0207800875 2.0399553905
25 2 19.995582271 4.1066503585 0.1256377813
26 2 16.090494666 4.1311666012 3.9942486286
27 1 21.784353112 6.0667085501 1.9451658306
28 2 20.027673459 7.9926166868 3.9036682666
29 1 25.901748231 5.9241913323 1.9237132762
30 2 27.871679338 7.9506572365 3.903625248
31 1 30.086797382 5.9930310927 2.0685719467
32 2 31.913828556 7.9533600241 3.9264719387
33 1 33.871373896 5.9628768715 2.07887671
34 1 38.081133142 5.9966024286 1.9937148877
35 2 0.0097108363 8.0667833527 0.108909144
36 1 2.1112758071 10.08248748 1.8599553521
37 1 6.0005306531 10.053571069 1.8815560441
38 2 4.0418667308 8.1764339589 3.843089242
39 2 7.9549519225 11.976700158 3.8687328518
40 1 9.9482630655 10.070824064 2.0224903334
41 2 12.121396974 8.1710982783 0.0636829392
42 1 13.992395722 10.199539432 1.8921795155
43 1 17.962760323 10.176946828 1.9142168485
44 2 19.970976681 8.0311767571 0.0505505032
45 2 16.028027129 11.91662411 0.0531345609
46 1 21.957566502 9.8185572169 2.0434055345
47 1 26.03630646 10.113636093 1.9886893349
48 1 30.335751893 10.122725156 1.955566832
49 1 33.958967136 10.08755911 2.0450800093
50 1 38.071780408 10.119511483 1.9835557094
51 2 36.058985616 8.1939907162 3.8721229485
52 1 1.9829653515 13.860582559 1.8931792635
53 2 3.9850056025 12.066707212 3.9276197338
54 2 4.0097938385 12.119234624 0.0956512371
55 1 6.0379973009 13.84144258 2.0124161973
56 1 9.8946961583 13.953559836 1.9702554851
57 2 8.0050388777 15.781290837 0.0784120202
58 2 11.815217319 12.042361426 3.7396347205
59 2 11.920190979 15.858500835 3.8758596786
60 1 14.124838967 14.03734071 1.9698144045
61 1 17.954081238 14.134470731 2.0607340278
62 2 19.988126769 12.003512383 0.0235221786
63 1 21.95515036 13.987358265 2.2155913358
64 2 20.080119428 15.782331456 3.9606573848
65 2 23.91768597 15.809800837 3.9270049162
66 1 26.021198972 13.793162593 2.1264263029
67 1 30.023615618 14.159512187 2.0855688186
68 2 28.022602295 12.153544855 3.9133074677
69 2 28.002910382 15.831271622 3.8254008119
70 2 32.103827172 12.026382921 0.0070674615
71 1 34.060596974 14.047036645 2.0615151765
72 1 37.858136674 14.108071837 2.1009725732
73 2 39.969015797 12.113562826 0.0850238354
74 2 39.907580825 15.8994529 3.9156104315
75 2 36.029025123 15.959876059 3.9266860536
76 1 1.9924790196 18.02736275 2.1260317124
77 2 3.9956942668 16.208423534 3.9462884284
78 1 5.9041284814 17.809171385 1.9681602616
79 2 7.993874302 16.119880287 3.9439900327
80 1 9.9599934586 18.039204716 2.1361122905
81 2 11.954085296 16.020933337 0.0620619448
82 2 8.0142623291 19.996408292 3.9887365013
83 1 13.901719581 17.992496922 1.8971278556
84 2 15.99549838 16.02758859 3.8137330219
85 1 17.970470625 18.089311566 1.9685722925
86 1 21.92992795 17.861106994 2.0137054341
87 1 26.032666687 17.982359577 1.9241124948
88 2 28.01001001 16.031296652 0.0704623092
89 1 30.008529319 17.9439447 1.9811141686
90 2 28.063898264 19.875130659 3.9895983588
91 2 32.185845321 16.275899163 0.2026680742
92 1 34.036059716 18.220144842 1.985435449
93 1 38.07490563 18.134347534 2.08779716
94 2 39.947693561 16.04449894 0.0837620679
95 2 39.897814258 19.887793784 0.1345482476
96 1 2.1028092252 22.024555087 2.0549330718
97 2 0.0278311942 23.987563176 3.9111101986
98 2 3.9452139927 23.986400235 3.8925613201
99 1 5.9751722083 21.963492352 1.9330287816
100 1 9.9535074729 21.995476802 2.0839147718
101 2 8.1008803193 23.846315635 3.9721900189
102 1 14.085304712 22.120829066 1.9696664576
103 2 12.066334612 23.947009443 0.1381684879
104 1 17.913864272 21.98218177 1.9936857991
105 2 20.22793486 20.196012895 0.087190929
106 1 22.162352852 21.971613641 1.9267817849
107 2 24.050914646 20.081727303 0.082706663
108 1 25.883779513 22.033323803 1.977710638
109 2 28.004458375 20.006303012 0.0452647281
110 1 29.86122642 21.992548513 1.9209262569
111 2 28.052177864 23.908750098 0.0590708376
112 1 33.816773639 22.118964494 2.0294945709
113 2 35.99768488 20.1218223 0.0299234224
114 1 38.000664765 21.972390812 2.0064952088
115 2 36.035562363 20.180108974 3.93985246
116 1 2.1310628144 26.060883458 1.9003800632
117 1 6.0755455941 25.988875312 2.0996826358
118 1 9.9462303119 25.971993566 1.9682622358
119 1 13.891212529 26.08684867 1.9138104972
120 1 18.126565831 26.055398921 2.0298013752
121 2 20.037355982 24.036893922 0.0075602153
122 1 22.088241069 25.883134952 1.9382597845
123 2 23.954489488 24.172271613 0.0267134293
124 1 25.940823546 26.103775671 2.258498214
125 2 27.814224818 24.205500665 3.9437417585
126 1 30.076947453 25.905610539 2.1030112155
127 2 31.990073096 24.093870485 0.0107009503
128 2 28.087709743 27.843473602 0.0540336357
129 1 33.886672445 25.90854732 2.0433500385
130 2 35.964562894 27.955689593 3.8613686541
131 1 37.892839575 26.016996225 2.088719777
132 2 39.980375744 27.874642281 0.0141366066
133 1 1.9483072917 29.903291901 2.0124516851
134 2 0.1723646748 31.834745295 3.9371688072
135 1 6.0543099256 29.849344127 2.0248971995
136 1 10.082520635 30.08548536 2.1240444602
137 1 14.002451808 29.991119767 1.8287981504
138 2 15.906554578 28.003274095 0.1375536949
139 1 17.82281642 30.063650891 2.2054811023
140 2 19.977149971 28.105875763 3.9629398552
141 1 22.003784003 29.94881867 2.1509815839
142 2 23.974942436 28.034428229 3.7652233585
143 2 23.941119135 31.967443394 3.9715605595
144 1 26.163054535 30.044808333 2.042298228
145 1 29.855503486 30.04262962 1.9794186912
146 2 31.940339012 28.028993565 0.0134697322
147 2 31.99255164 31.947619046 0.0443185467
148 1 33.998948632 30.188427093 1.9618592442
149 2 35.999045862 28.083837363 0.0632911613
150 1 37.90708572 30.014557215 2.0035577495
151 2 36.198651974 31.97544622 0.0362859241
152 2 39.817675442 28.138115771 3.964743562
153 2 36.024430115 31.856915673 3.8443971738
154 1 1.9474289448 33.914406687 2.1341820594
155 2 3.9676890809 35.991234268 0.0119607766
156 2 0.1110645144 35.904201933 3.9197737175
157 1 5.959492956 33.893209083 1.8206314188
158 2 7.9529808977 32.056349652 3.914506054
159 1 10.203398907 33.723777266 1.9581176637
160 2 11.925314387 32.053697303 0.0626152701
161 2 11.913082285 32.276085332 3.9895965471
162 2 8.1943161507 35.94879163 3.7531797194
163 1 13.962545921 33.870559743 2.0581786648
164 2 12.011221171 35.976080059 0.0251651253
165 2 16.022260694 32.097871648 0.0342825148
166 1 17.887053364 33.860725034 1.9216973312
167 2 16.076350518 32.16396797 3.9219832716
168 2 20.238170138 32.072333978 0.0828468808
169 1 22.17129933 34.111021234 1.9856263725
170 2 23.978508229 32.021289235 0.0830816199
171 2 20.029543459 35.919797561 0.0959644508
172 2 20.001933174 35.964416546 3.9596588354
173 1 25.851133447 34.083989319 2.0008678627
174 1 30.008898595 34.017320396 2.0653605247
175 1 33.898667706 33.997970373 1.8065441999
176 1 38.099010284 34.001319014 1.8365274031
177 2 39.83184533 32.149345484 0.0070321678
178 2 39.966494294 35.868150463 0.1536796658
179 1 2.0970140911 37.904121223 2.0471733339
180 2 0.0086164455 39.930201032 0.0767840795
181 1 6.0464008755 37.883654 1.8314744759
182 2 4.1149916402 39.928160027 3.9153109142
183 2 8.0070306292 36.08931549 0.1061282756
184 1 9.9803405711 38.121283899 1.94457244
185 2 11.927948193 36.012017797 3.9961754052
186 1 14.03237986 38.184873111 1.948687053
187 2 12.086615533 39.855661232 3.9575390653
188 2 15.94844374 36.022823649 3.9838167533
189 1 18.023116413 38.077525026 2.0165460475
190 1 22.101947101 37.990638263 1.8750405713
191 2 23.904195723 36.027948867 0.0595595447
192 1 25.990493286 37.985620879 1.8848562277
193 2 27.913737335 36.120316928 0.008088828
194 2 27.893364433 39.853150486 3.8712613233
195 1 29.81857939 38.220038519 1.7978415767
196 1 34.084555989 38.000117978 1.997648562
197 2 35.998844803 36.033846979 0.1899049828
198 2 35.923087963 39.935646339 3.9458045057
199 1 37.981114062 38.081866791 2.0340837545
200 2 39.937803315 39.987983864 3.9979296681
201 2 36.100923619 36.026699281 3.9109002987
202 1 1.9624097174 2.2188520305 6.0563740921
203 2 0.2337958123 3.9654146643 4.0049037761
204 1 6.0191314862 1.8439265874 5.9192588562
205 1 9.859554349 1.9143157198 6.1985697514
206 2 11.996745086 0.0678743953 7.962055085
207 1 13.887487794 2.1164268494 6.0362483443
208 1 17.84944758 2.0020898768 5.9153658777
209 2 19.907160121 0.002928866 4.0441644637
210 1 21.984209305 1.9272868561 5.7927181307
211 2 23.923261364 0.1249264619 7.9133074342
212 2 24.03978131 0.0857586659 4.0754795002
213 1 26.062654046 1.9400431804 5.9843759865
214 1 29.872189915 2.0142083219 5.9348732222
215 2 31.940330206 0.0657433401 4.0263090352
216 1 33.948431229 2.01460543 5.9486449091
217 1 38.072056383 2.0299221384 5.9402556861
218 2 39.839170485 3.864999873 7.9875041153
219 1 1.886879236 5.9235177872 6.0229215384
220 2 3.8344371764 7.9981007445 7.8966801463
221 2 4.0205048224 4.1213025841 4.1206343675
222 1 6.0011651459 5.890110055 5.9168641932
223 2 7.9520428851 7.931769703 4.0325488961
224 1 10.001656733 5.8319259039 6.0880826941
225 2 11.93224486 4.0428423014 4.2827435175
226 2 11.994092854 7.908852392 4.0047301455
227 2 11.879654215 4.1429318199 7.9112996871
228 2 8.0423970136 7.7765763685 7.9435561466
229 1 13.88062772 5.8332857855 5.9391161254
230 2 15.956139058 7.9771045688 7.9758542293
231 1 18.114725642 5.9302069767 5.8740610656
232 2 19.945905595 4.0266413733 4.0772017506
233 1 21.940097028 6.0158043599 6.1807227026
234 2 20.087519308 4.0003245378 7.9869498296
235 2 20.036660001 7.880125679 7.88016433
236 2 23.853344472 7.996641884 7.9773764151
237 2 24.021961657 4.0874383842 4.0023212398
238 1 25.979635931 6.1045345883 6.0632262055
239 2 27.88894965 7.9960394237 7.9901236654
240 2 28.055898431 4.0526382887 4.0118121249
241 1 29.999367569 6.0419406955 5.903818745
242 2 32.117483226 4.0383491216 4.0363778417
243 1 33.995561608 6.017609801 6.1537460735
244 2 36.076019001 4.0858304678 4.0430287827
245 1 38.056823048 5.9489764399 6.0490053997
246 1 1.9684338632 9.8880278499 5.9742450893
247 2 0.0859037826 8.0280554993 7.9561849795
248 1 5.9703533653 10.052415059 6.0882214155
249 2 7.9165816145 11.917181384 7.9719998135
250 1 10.148555692 9.8523199876 6.0231707447
251 1 14.104680349 10.085803444 6.2203738796
252 2 15.957903497 11.781991878 4.0436707834
253 2 16.174595184 8.0661617158 4.1330251076
254 1 17.837858171 9.8729089227 6.0296726115
255 2 19.934200255 11.944895378 7.8933025568
256 1 22.06036971 9.9781225746 6.0639324499
257 2 20.124027455 11.959607981 4.0552075627
258 2 23.834810208 11.924570905 4.0260344261
259 2 23.952963627 11.948168089 7.9042683293
260 2 24.114937002 8.1192770551 4.1931881879
261 1 26.000971812 9.7842525298 6.0056184759
262 1 29.916584089 10.10510011 5.8311507739
263 1 33.913695908 9.8617940633 6.1420554975
264 1 38.206620005 9.9552307615 6.0324431951
265 2 39.881139121 8.0110997224 4.0846389368
266 2 39.997195305 11.951309258 4.0380135255
267 1 1.8243776379 14.008001077 5.8956332779
268 1 6.1831049804 13.8712449 6.0184760612
269 1 9.8826758126 14.061209054 5.9716361114
270 1 14.02002977 14.018772599 6.1255413615
271 1 17.81832838 14.091875821 6.1521989092
272 1 22.144537291 14.077134171 5.9383110269
273 2 20.114803078 15.903197565 7.982658204
274 1 26.025777723 14.151413667 6.1002823575
275 2 27.951165764 12.118056881 7.856924113
276 1 29.877801077 14.109018185 5.7056399655
277 2 31.98193917 12.037399572 4.065825904
278 1 33.998642575 14.08621438 5.9817669983
279 2 35.733990274 12.061338186 4.0366557493
280 2 35.99538658 15.95296209 7.9789797132
281 1 38.011915371 13.842642762 5.945285819
282 2 36.095651029 12.001595128 7.9068951911
283 1 2.097550356 17.927868372 6.0786114391
284 1 6.1870080272 17.993208337 6.1888893584
285 1 10.054114127 17.879922042 6.040717726
286 2 11.976315797 16.215265501 7.975809282
287 2 8.1945189084 19.793244289 7.884764028
288 2 11.920776393 19.985994955 7.9326963628
289 1 14.073800869 18.12747081 6.0040545747
290 2 15.967689277 19.909054523 7.961186515
291 1 18.102796157 17.987605059 6.2189568388
292 2 16.004798672 19.837300551 4.1909057945
293 2 19.858662959 19.799014274 4.0153288788
294 1 22.037573801 18.102570361 5.9069540432
295 1 25.945115242 17.917128756 6.0546711352
296 2 24.058683919 19.996811485 4.1006309155
297 1 29.989570937 18.115090756 5.927554317
298 2 28.117499357 16.008627346 7.968805092
299 2 32.097377491 16.166182284 4.1904753034
300 1 33.975622934 17.999027579 5.9978226465
301 1 37.99435528 17.948027135 6.0463149755
302 2 39.98550111 19.946716613 7.8364475404
303 1 2.0368443582 21.974909028 6.1631009517
304 2 3.8334400948 20.011440205 4.067401881
305 1 5.9477365939 21.959731804 5.894718897
306 2 4.1961876445 20.046333262 7.9227933112
307 2 4.0907980809 23.988901154 7.8802229071
308 1 9.8894098246 21.973528926 6.1356692193
309 2 12.010625072 20.002211762 4.0515475301
310 1 14.052647473 22.012453395 6.0560630677
311 1 18.017785248 21.8841479 6.0311193779
312 1 22.08801824 22.112057929 6.0552590748
313 2 20.027026914 20.088265505 7.9564117093
314 1 26.066333258 22.128023895 6.0819543187
315 1 29.994055522 21.89089549 6.0631220253
316 2 28.045017318 23.932943225 7.9212010046
317 2 32.089025095 20.191836081 4.0950519856
318 1 34.014781392 22.003784024 5.8421407764
319 2 35.949089411 20.128830145 7.874977421
320 1 37.948416411 22.039422839 5.9435872487
321 2 39.846203261 20.033444742 4.1152735318
322 2 36.036004551 23.963133423 7.9550489102
323 1 1.9025361023 26.083620409 5.9638844996
324 1 6.2933081361 26.045295624 6.0714844569
325 2 4.0912279518 27.938067916 4.0835646465
326 2 7.9065459724 27.925314259 4.1221967753
327 1 10.015118581 26.019482318 5.9182088117
328 2 8.110294167 24.107010731 7.9812817037
329 2 12.072349852 24.074048449 4.2041927523
330 1 13.909140565 26.020589623 5.966594803
331 2 15.95089518 24.031977077 4.2758991141
332 2 12.020893673 27.88935062 4.0557677098
333 2 15.96497158 27.941182949 4.0221200749
334 2 15.998803198 24.131938938 7.9591441318
335 1 17.953806529 26.020389673 6.0931450182
336 2 19.883011531 24.042501269 4.0063573538
337 1 22.132263701 26.05143604 6.0297837516
338 2 23.877467308 24.014308392 4.107891684
339 1 26.069072867 26.105356274 6.0507838568
340 2 27.974063107 27.756881624 4.0579797059
341 1 30.192169309 25.835923768 6.0358876389
342 2 31.994913564 24.032675067 4.0376318641
343 2 31.959934836 27.909189426 7.9428523427
344 1 34.095166623 26.020101372 5.9351706337
345 2 35.918506038 24.221128981 4.0531388561
346 1 38.079734402 25.933244872 5.967555584
347 2 36.154861363 27.848104309 7.8397205519
348 1 1.9448483305 30.104673502 5.6503682626
349 2 3.9589630814 31.992802009 4.1635252561
350 1 5.9631505408 30.163824201 6.214106729
351 1 9.9782651246 30.098705981 5.9296305947
352 2 8.0939562894 31.903433333 7.8544007987
353 1 14.08226062 30.171404748 6.1155089677
354 1 17.976191179 29.976342695 6.1289765111
355 1 22.255460134 29.993659576 5.929921184
356 2 20.040540876 31.9278898 4.1351714804
357 1 25.984083757 30.030124059 6.0636036685
358 1 29.95225955 29.979759902 6.0648060222
359 2 28.074513743 31.919527925 4.0256032888
360 2 28.054107571 31.856882431 7.9589457908
361 2 32.108333133 28.168299738 4.0698768028
362 1 33.907831458 30.169348127 6.0549978018
363 1 37.953131336 29.938284162 5.9411767062
364 2 39.828539733 28.038864326 7.9263043289
365 1 1.9504128977 34.0498087 6.2286696612
366 1 6.0342314863 33.894881223 5.9196283142
367 1 9.8407912085 34.024287196 5.9598804114
368 2 8.0226959261 35.900631604 7.9753022307
369 1 13.962551239 34.050962502 5.9177718718
370 2 12.142528431 35.90063314 7.9568013992
371 1 17.917219927 34.074213223 6.0533683991
372 1 21.783040535 33.973021096 5.9133278796
373 1 25.999660248 34.117568439 6.0056133508
374 2 24.130634225 35.925980314 4.0281238576
375 2 27.951073801 35.827736711 4.0639711384
376 1 29.907004324 33.79699032 6.0758448199
377 2 31.843230942 32.128123618 4.1360630531
378 1 34.065945184 33.919326012 5.9793405568
379 2 35.949941609 32.076624533 7.9177649145
380 1 38.003958185 34.017093773 6.1215038799
381 1 2.0688103994 38.111428462 5.8820179912
382 2 0.0407064708 39.94657364 7.9247296048
383 2 3.9112571875 39.934804271 7.9593571962
384 2 4.0032811548 36.074488955 4.0544908196
385 1 5.90807717 38.052401445 5.9888427389
386 2 7.8477763947 39.906125267 4.065755717
387 1 9.9290515671 37.827476846 6.1187715948
388 2 8.0011979466 39.810953042 7.8260924222
389 1 14.043192241 37.981099199 6.1563771338
390 2 15.917623661 39.964952402 7.9129525674
391 1 18.06649688 38.006761383 6.0257071288
392 2 16.038953253 39.885207946 4.1071922952
393 2 16.088568922 36.215004013 7.8898133148
394 1 22.079854909 37.903487382 5.8541839712
395 2 20.1503576 39.960340476 7.9165778102
396 1 25.876507546 37.882136076 6.058710277
397 1 30.040392965 37.965122748 6.0908803311
398 2 31.96747001 36.164144781 7.8949169239
399 2 32.069971085 36.078013355 4.1246561249
400 1 33.85726208 38.03901502 5.9063105455
401 2 32.076339066 39.88209034 7.8742047354
402 2 35.804209849 36.120344716 7.9700860597
403 1 38.034736931 38.089139558 6.0145867498
404 2 36.053236699 39.952235275 7.8982040352
405 1 1.943040144 2.0723925792 9.9492517268
406 2 0.0254374927 0.0594947218 11.976051276
407 1 5.8915734594 1.986575319 10.082104516
408 2 4.0050625314 3.8262494426 8.0318171677
409 1 9.918679063 1.9447127207 10.069887059
410 2 8.0755906967 0.0744250261 11.913390732
411 2 11.9275901 0.011613195 11.910982131
412 1 14.117263434 2.0985685258 9.8624634945
413 1 17.952497299 2.1796186136 9.9447637005
414 2 16.023907041 3.8877522702 8.1423677834
415 1 21.955125029 2.0512846781 10.072467438
416 2 23.909085504 3.8168651484 8.0217285803
417 1 25.946542642 1.9079237081 10.072831116
418 2 28.166466123 0.0172237027 8.0489267946
419 1 30.003279334 1.869263643 9.8474766718
420 2 28.060681682 3.8638581139 11.97812504
421 1 34.00043574 1.9688865665 10.10638238
422 2 32.123094427 0.090176632 11.930035445
423 1 37.970602584 2.0171970503 10.130699198
424 2 36.015295403 3.9251679402 8.0245441684
425 2 36.123388101 0.0472054945 11.999781862
426 1 1.9940051974 5.8345106745 10.068099352
427 2 0.0246341491 4.1506870218 11.994381715
428 1 5.924273092 5.9946725062 10.026371689
429 2 7.9037682459 4.0113988112 8.0990330915
430 1 10.152039133 6.1722346007 10.096824851
431 2 11.96175106 7.9376533361 8.2194269655
432 1 14.157985886 5.9435796023 9.8532099379
433 1 17.996479187 5.9336885426 9.9629850844
434 2 16.099940112 7.9897544225 11.96437501
435 1 21.764035593 5.9734940992 10.106699146
436 1 26.236279254 5.901242867 9.9377532208
437 2 24.129747214 4.0641143794 11.945220303
438 2 28.105381967 4.1266880884 8.0351985528
439 1 30.25414203 5.913108736 9.9880467145
440 2 31.875425057 4.0080067708 8.1626116562
441 1 33.787867084 5.9728015298 9.9893612051
442 2 32.102303589 7.9893364622 8.0419468811
443 1 37.969108549 6.0837846372 10.102717906
444 1 2.1582596577 9.9562402241 9.9641801094
445 2 3.9901204849 11.998220327 8.1367945173
446 2 0.0056116004 8.0514558339 11.963792867
447 2 3.9248892905 8.0251728007 11.985241389
448 1 5.840165899 9.952436382 9.9080291313
449 2 7.9643003815 8.0674351374 11.866293127
450 1 10.276037356 10.004713546 10.080569776
451 2 11.986053576 11.984591099 8.0689096805
452 1 14.037503628 9.8906818979 9.7235746797
453 1 18.001373015 9.8737195434 10.071400879
454 2 16.055807975 11.936118593 8.2404459921
455 1 21.968154699 9.7378925451 10.007922458
456 2 23.866943953 8.0816967683 11.88605055
457 2 20.125097466 11.94452041 11.977698265
458 1 25.742398538 10.014273925 9.9837077893
459 1 29.996348362 9.9035473784 9.8208140698
460 2 31.904775774 8.1832411305 11.982119304
461 1 33.963628308 9.9042991807 10.048526228
462 2 32.243002537 11.957897525 8.0664486852
463 2 35.927669236 8.0712086637 11.917979129
464 2 36.091673165 8.0428933516 8.0157657136
465 1 38.032469646 9.9921089462 10.017792427
466 2 39.869454717 11.934960493 11.982277811
467 1 1.8472752279 14.076698391 10.041638692
468 1 6.0404435287 13.939792324 9.8903895121
469 1 10.204388198 13.941022678 9.8840637233
470 2 8.0321612432 15.974359897 8.013186022
471 1 13.964082679 14.023407342 10.13153789
472 2 15.962993869 15.929847723 8.0357163488
473 2 15.872305812 15.71408071 11.892922296
474 1 18.066044215 13.939513064 9.9635303639
475 1 22.105089259 14.097956123 9.9253097138
476 1 26.006453555 13.876677202 9.9792138501
477 2 27.862950277 12.00570103 11.952790211
478 2 24.063266039 15.942234337 11.991822455
479 1 29.942415397 14.00501183 9.9930911201
480 1 33.99185869 14.004401746 9.8329123592
481 2 32.16492794 15.910368283 8.0169088674
482 2 35.944335582 12.020329384 11.799214866
483 2 35.959187582 15.991342407 11.97518909
484 1 37.799153819 14.083918137 9.8194955113
485 2 39.973641467 12.083426104 8.1322735681
486 2 39.819420077 15.999533288 8.1116099297
487 1 2.1304116362 18.056790408 9.9213119155
488 2 4.0952916156 16.16527834 8.1177501026
489 1 6.1336654882 17.964102755 9.8691263329
490 2 4.2926174677 16.125864424 11.930859952
491 1 9.8374962029 17.903280476 9.9851743404
492 2 8.0147870678 16.067473106 11.865674226
493 2 11.972509263 16.132314582 11.970162121
494 1 14.029645814 17.959009351 9.9218277072
495 2 15.972392992 19.928310043 11.948612962
496 1 17.959298497 18.049992157 9.8892343367
497 1 21.989413211 17.970527781 9.9405709413
498 2 23.982738565 16.040855099 8.0836959942
499 1 26.089359721 17.988366417 9.9095612
500 1 30.034526819 18.010197205 10.138221304
501 1 34.052181064 17.988152152 9.9238545942
502 2 32.036311901 16.08306813 11.922741012
503 1 38.002319196 18.055844277 9.9980614854
504 1 2.0020316772 21.96386453 10.133420645
505 1 6.1067776587 22.036145199 10.073018076
506 1 9.9704688067 21.948457105 10.032587893
507 2 8.2186517019 20.115954596 11.97656336
508 1 13.935450483 22.021795007 10.081519514
509 1 17.921683844 21.921003769 9.98345925
510 1 22.099641965 22.008479831 9.9698713971
511 2 23.755190513 20.04901946 8.0721778802
512 1 25.923706591 22.008570266 10.177009261
513 2 27.827364149 20.060516893 8.0032570963
514 2 27.977052869 20.117272578 11.89194525
515 1 30.111705999 21.992150514 10.13269115
516 2 31.866751592 20.037012232 8.0311490601
517 1 34.016315706 21.845429436 10.019967351
518 1 37.939095366 22.118594824 9.9883457359
519 2 4.9560777436e-04 24.16067148 8.293256578
520 1 1.9875214313 26.177625028 9.9013816255
521 2 3.9053476707 27.907130309 8.0672807418
522 2 0.0631315317 27.944201455 11.944020417
523 1 5.8253290573 26.093597239 9.9538845543
524 1 10.075715785 26.037074421 9.9349615993
525 2 8.2148689549 27.939901179 8.1350641746
526 2 12.000624413 24.029132411 8.0926665672
527 1 13.697896695 26.059374606 9.9750264139
528 2 12.057007437 27.878088131 11.945132127
529 1 18.012503037 26.005762864 9.9403632033
530 2 19.898139684 24.012762802 8.1753710458
531 2 16.041287363 27.967962024 8.0610804404
532 2 16.029842056 27.933809155 11.841805629
533 2 19.925026514 27.938622864 11.993232406
534 1 21.865400558 25.973665415 10.065158533
535 2 20.013404706 24.153956926 11.962590983
536 2 24.094227519 24.081745417 8.012637584
537 1 25.89803019 25.962138728 10.041845154
538 2 27.776931357 27.980079485 8.097290267
539 2 27.942209048 24.038639474 11.973205754
540 2 24.312769789 27.763649376 11.951034344
541 1 30.201979314 25.936191463 10.043579927
542 2 32.174704399 24.291188076 8.085801009
543 1 33.805154574 25.911351159 9.7985916129
544 2 35.929426373 24.05982381 11.902564658
545 1 37.889661406 25.983470124 9.8866007722
546 1 2.0590908445 30.151285331 10.105742252
547 2 0.0581096776 31.941110952 8.1932767579
548 2 3.9306133832 31.852360456 11.768783971
549 1 5.9352658789 30.04365381 10.052335213
550 2 4.0100504543 31.905128943 8.1317931753
551 2 4.1196611432 28.01550751 11.93752858
552 1 9.9436327149 30.200433688 10.049846701
553 2 11.779728282 28.160079651 8.0301794962
554 2 11.910445653 31.86519574 8.0464823132
555 1 13.951582855 29.97078262 9.974167712
556 2 15.742450721 31.900264415 8.0026521211
557 1 17.971084417 30.139172513 10.099427281
558 2 19.902463774 28.099814948 8.0263034373
559 2 19.941407122 31.957712344 8.0884281545
560 1 22.120163174 30.040252899 9.9602918296
561 2 24.172962457 28.00394218 8.1575846007
562 1 26.139375228 29.94545639 10.015618668
563 2 24.009809458 31.963922735 8.0177691662
564 2 27.995668492 31.941925077 11.70932039
565 1 29.941483281 29.855026371 10.032244502
566 2 31.842885421 31.918927882 8.0997286178
567 1 33.874650218 30.210094692 10.086146288
568 2 32.012902892 31.993087139 11.975774779
569 1 38.076852313 30.062908638 9.8533068712
570 1 2.0641511405 33.907558139 10.023179331
571 1 5.9070489801 34.08041084 10.146506736
572 1 9.902620621 34.137739631 10.072922013
573 2 11.990592437 35.967723423 11.993875521
574 1 14.089002713 33.99932447 10.142270658
575 1 17.969634041 33.735276515 10.002771126
576 1 22.103132589 34.094629409 9.9757532089
577 2 20.054430915 35.888842921 8.0223324943
578 2 23.881229766 35.992312776 8.0619017939
579 2 20.094515756 32.134846213 11.922574898
580 2 23.761999065 35.835039868 11.902586425
581 1 25.961156392 34.047439544 10.023222844
582 2 27.980721495 35.873397368 8.1799853303
583 1 30.140769191 34.235179471 10.060092867
584 1 34.021816093 34.151546294 9.9812280668
585 1 37.838780396 33.912510005 10.067495451
586 2 39.969891467 32.097535383 11.845761279
587 1 2.1533246726 37.985649353 10.167377391
588 2 3.8901890717 39.898992365 11.902107811
589 2 4.2557226681 36.039698027 8.0458969644
590 1 5.965139368 38.11611373 9.8904613222
591 1 10.013796451 37.996976885 10.050742812
592 2 8.1483395499 36.122551136 11.985020288
593 1 13.927506953 37.962859011 10.08029148
594 2 15.92338977 39.868737271 11.993188608
595 1 18.052409877 37.857807614 10.07749809
596 1 21.984810566 38.117618404 9.9605380066
597 2 23.959931662 39.990409623 11.979786774
598 2 20.046066041 36.0550647 11.846432107
599 1 26.048457409 38.060180261 10.178545969
600 2 27.874827134 39.914829108 11.954655043
601 1 30.098056753 38.037535586 10.010827453
602 2 31.857835036 36.027935364 11.967468557
603 1 34.008044994 37.963433863 9.9642993713
604 1 38.063066555 38.011622968 9.9609564101
605 2 39.947968271 36.169108708 8.1194404731
606 1 1.9808389361 2.1055843086 13.93845136
607 2 3.9806678852 3.9470799766 12.026321867
608 2 3.9577260661 0.0641353159 15.923673539
609 1 5.9890565871 1.981553426 13.856553445
610 2 4.048716489 3.9556350121 15.982875319
611 1 10.219862591 2.0204275128 14.026661366
612 2 11.955011188 3.9458047735 12.030385048
613 1 14.061090615 1.910402089 14.069052181
614 1 17.947841709 2.0596254406 14.077371239
615 1 21.953682143 1.9653100098 14.176976953
616 1 26.031511105 2.0346470456 13.925027835
617 1 30.006414708 1.9310643728 14.041090127
618 2 31.959440474 0.0857656987 15.981765988
619 1 33.933842653 2.1160925617 14.024322998
620 2 35.888119542 3.9222779726 12.071274975
621 2 35.950660397 0.0736099272 15.974984053
622 1 37.893349856 2.2737201664 13.933751559
623 1 2.1046758914 6.0745396553 13.999368125
624 1 5.9142767899 6.0085788999 14.058901128
625 2 7.9884256325 4.0286258204 12.073557322
626 2 7.828757021 4.1501472663 15.896948437
627 1 10.091623619 6.2300476105 13.983938762
628 2 11.958899567 7.8952009681 12.156114305
629 2 8.0606433246 7.7924556002 15.898245292
630 1 13.976264179 6.0486789319 13.97869973
631 2 15.968209216 4.1465219947 12.041801718
632 2 15.926438242 4.1054573348 15.993645483
633 1 18.167326942 6.0063963854 13.892066508
634 2 19.799798453 7.9421279987 12.160376113
635 2 19.801039557 4.1377996578 15.940180995
636 2 20.203248712 4.0714427485 12.033590839
637 1 22.153720499 5.8795649733 14.163325147
638 2 23.915730812 7.9084106938 15.999862996
639 1 25.935731801 5.8616660346 14.061441752
640 1 30.184043912 5.9861330849 14.002104896
641 2 32.068794458 4.0183301407 12.00903541
642 1 34.130996452 5.9653267116 13.918295373
643 2 32.126741283 4.0993375387 15.908276968
644 1 37.870447718 6.0383252595 13.932592166
645 2 36.16577721 4.0099400169 15.987638468
646 1 2.1049749692 10.099288896 14.068090644
647 2 3.9199912633 11.819585257 12.024924349
648 2 3.9734100814 11.942302693 15.989661557
649 1 5.8285963171 10.071471159 13.946329399
650 2 4.0075766819 8.1909250976 15.890397913
651 2 7.8544180342 11.895276961 15.977856995
652 1 10.038931617 10.110366753 14.174088972
653 1 14.195689951 9.9268107945 14.089621182
654 2 15.958074011 8.0291434696 15.830345262
655 2 12.092851442 11.892279766 15.928302272
656 1 17.942195465 10.05495866 13.981805313
657 2 16.039532704 11.928438444 12.200706137
658 2 19.944656922 8.1131379772 15.989885334
659 2 16.013744443 11.897950174 15.912349539
660 1 22.003368202 10.048840085 14.019915263
661 1 26.030239313 9.9906048653 14.039691027
662 2 24.008131742 11.913656023 12.081775622
663 2 27.907587428 8.018963476 15.960057543
664 2 24.051813726 11.931964931 15.937624809
665 2 28.010312247 8.0203040942 12.060219824
666 1 29.906110127 10.050168184 14.098455044
667 1 33.970742497 10.063324278 14.089079964
668 2 35.960751562 8.1457500064 15.897242164
669 2 35.887452276 11.9443253 15.78302597
670 1 37.983452047 9.8703332994 14.019250869
671 1 1.9657375585 14.005622046 13.985205203
672 1 5.9471259554 14.014504716 14.117038426
673 2 7.9421841602 12.081906546 12.088013275
674 1 9.9708896523 14.094733761 14.016414796
675 2 11.851643254 12.080885831 12.158841046
676 1 13.830381564 13.970119729 13.958225828
677 2 12.003482058 15.930419035 15.955164681
678 1 17.901980655 13.761598857 13.942793902
679 1 21.945690019 14.045675696 13.948723075
680 2 20.015630149 15.891674324 12.026584104
681 1 25.957977564 13.977700525 14.027521204
682 1 30.029136431 14.126941477 14.17482349
683 2 31.902536132 12.055905143 12.097793266
684 2 28.079452074 15.989731915 12.044231687
685 2 31.915490019 12.009712329 15.902132648
686 1 33.939703609 14.226336173 14.197186224
687 1 38.015776535 14.059741291 13.862923849
688 1 1.9225366212 17.859645675 14.096625088
689 2 0.1379096624 16.039765255 15.99434941
690 1 6.0973273318 18.040618731 13.818537303
691 2 4.0858644018 19.920753992 15.952121678
692 1 9.9544845647 17.958616352 13.966073847
693 1 13.896073339 18.07870186 13.894703477
694 2 12.035107042 19.839014279 12.165040879
695 2 15.892839356 16.101686768 15.977851182
696 1 18.002152094 17.992339482 13.966774039
697 1 22.003731701 17.992665701 13.975052712
698 2 20.030156611 19.999988934 15.97991287
699 1 25.935108972 18.020712796 14.036713815
700 2 24.0531931 16.075580757 15.906420657
701 1 29.900923266 17.929435602 13.858279971
702 1 34.053206474 17.970178778 13.990163923
703 2 32.00289067 19.878992376 12.033715893
704 2 35.875957551 19.890558106 12.063030429
705 2 32.04824974 16.066606236 15.91981447
706 2 32.024669672 19.743297184 15.828125677
707 1 37.915624223 18.066471225 14.061644454
708 2 39.984421717 16.000195504 12.12386233
709 2 39.870887494 19.824849466 12.101449803
710 1 2.1153466047 22.077605275 14.014648464
711 2 0.0401719766 20.185346358 15.851962149
712 2 4.0752007669 20.112072843 12.076143607
713 1 5.8872999038 21.950619034 14.050981411
714 2 4.0911898611 23.927541967 12.020671517
715 1 10.035115632 21.932020202 14.094810778
716 2 8.0007297282 23.869558435 15.828262646
717 2 11.942731806 23.913829535 15.973077101
718 1 14.098572554 22.151571287 13.98762787
719 2 12.028735191 23.868434948 12.035194547
720 2 12.018164286 20.202262818 15.896810962
721 1 18.164597461 21.887352797 13.966785129
722 2 19.8894323 20.048048167 12.082828267
723 2 16.183445808 23.982069577 12.003169747
724 1 22.005490882 22.066232232 13.979782537
725 2 23.882808107 20.12695887 12.012788508
726 2 23.876184751 23.897487345 15.858203118
727 1 26.021321667 22.0974723 13.988452117
728 2 24.135353459 23.762885532 12.086304761
729 2 27.895668937 20.054485598 15.934913672
730 2 27.843384832 23.964440281 15.941181044
731 1 30.088512637 22.080719052 14.14059227
732 2 31.845585328 23.986281224 12.02880571
733 2 31.829401804 23.944575925 15.927031622
734 1 34.127247741 22.039501388 13.841551494
735 1 37.897275933 22.029911738 14.210070735
736 2 39.814628509 23.905873741 12.044584669
737 1 2.058745753 25.883845543 14.044855864
738 2 0.0550945383 27.982306316 15.909871269
739 1 6.0707422777 26.216820021 13.802981012
740 2 7.9284462056 24.001234449 12.159718464
741 1 10.078308276 25.922418623 14.037698464
742 1 14.132060108 26.124942384 13.943738016
743 2 15.929033711 27.906812314 15.945117623
744 1 18.048331288 26.007097862 13.872813837
745 2 19.988727608 24.057433427 15.964972264
746 1 22.039570144 25.96751335 14.048335978
747 2 20.173158392 27.840415848 15.800414787
748 1 25.841409119 25.890122032 13.933693173
749 2 24.023670445 27.952674578 15.911066431
750 1 30.184518796 26.067582406 14.00560692
751 1 34.092333289 25.891719872 13.966338966
752 2 32.055352562 27.998741351 12.131259224
753 2 35.92971142 27.880062283 12.0368121
754 1 37.844481262 26.164037939 13.793284239
755 1 1.9939893937 30.017946591 13.882550435
756 1 6.072097168 30.134720722 13.921422818
757 2 7.9523460608 28.088855952 12.054060412
758 1 10.052221359 29.906052222 14.023376772
759 2 8.1906726436 31.975056373 12.192273067
760 1 13.950623543 30.009018573 13.969210109
761 2 12.006312017 31.952621499 12.080916784
762 2 15.854399474 31.922008814 15.913165998
763 1 17.985191558 29.968784853 14.025829391
764 1 22.084950863 30.074089583 14.095186359
765 1 25.994351168 29.985519347 13.987025362
766 2 28.000456067 28.006893627 12.098323629
767 1 29.864450543 30.052145487 14.122871693
768 1 33.987803378 29.921864191 14.001379747
769 2 35.959326549 31.961776976 12.095938497
770 1 37.862748383 30.044705177 14.029602457
771 1 2.1067832332 33.980569291 13.960796487
772 2 3.9464533367 35.935085762 12.004844926
773 1 5.9004214832 34.065531272 14.055036229
774 2 4.0779072189 35.961332034 15.880519922
775 1 10.047430853 34.185926142 13.985648779
776 2 8.0481551596 32.106006996 15.913793679
777 2 11.991108438 32.138641607 15.990435219
778 1 13.992629427 34.02089493 14.070196748
779 2 16.061253921 32.013162905 12.141252955
780 1 17.972893321 34.00333456 14.008567797
781 1 22.061680361 34.237953778 14.108994528
782 2 23.871773476 32.085909074 12.009076794
783 2 20.135846794 32.017657537 15.994486419
784 2 23.949848087 32.245313537 15.922787474
785 1 25.801593635 33.943852364 13.986429895
786 2 24.121742457 35.843903969 15.957963195
787 1 29.956614231 34.008800077 13.972908424
788 2 28.04635299 32.004470461 15.930321672
789 2 31.976754976 32.022556496 15.930987052
790 1 33.735779028 33.891394956 14.136008691
791 1 38.059430618 34.03363933 13.921015498
792 2 39.994351739 35.917724402 12.06217292
793 2 36.111660782 35.960297731 15.975330779
794 1 1.9740310997 37.865927124 14.177943445
795 2 0.0839159646 36.115483646 15.939853106
796 1 5.9626133941 37.744215159 13.937967217
797 2 7.9151862697 39.9315499 15.984196341
798 1 9.9253858183 37.89305786 13.778946273
799 2 11.850640839 36.059522156 15.920428845
800 1 13.931250629 38.028035337 14.092750382
801 2 15.694451167 36.131984913 12.042612746
802 1 17.997396027 37.798740474 13.82640218
803 2 19.971939616 39.962388069 12.136186714
804 2 16.058568682 39.928278691 15.984414845
805 2 19.967232642 36.08287991 15.974896816
806 1 22.21906487 37.903414416 13.951759477
807 2 20.027974708 39.90158038 15.878038049
808 2 23.907964733 39.937800782 15.993787062
809 1 25.845309495 37.901261767 14.199713698
810 2 28.09705739 36.055175777 12.076244932
811 1 29.948235365 38.036556083 14.249049441
812 2 28.062826652 36.016797464 15.924737707
813 1 34.23260053 38.018843697 14.162196389
814 2 36.067658584 36.001786771 12.102519992
815 1 37.962810128 37.984753683 14.16730274
816 1 2.0865373203 2.1035884825 18.073244519
817 2 3.8445484693 0.0453512124 19.794826239
818 2 0.0601783677 3.9987637803 19.941396401
819 1 6.0110223198 1.9065984791 18.055397356
820 1 9.8643120128 1.91558944 17.898615577
821 2 12.035982857 0.0064700692 16.082681114
822 1 13.965250019 2.0596219781 18.035124782
823 2 12.120492716 0.0073510955 19.822278435
824 2 15.946026822 3.9180608536 19.877800239
825 1 17.9267631 1.8893193077 18.11527905
826 1 22.101345255 2.0220904124 18.042022348
827 2 20.01661183 0.0962471233 19.832608224
828 1 25.887006128 1.8235497993 18.068963302
829 2 24.030448345 0.097663971 19.908458288
830 2 28.218809657 0.1064470043 16.118256008
831 1 30.039698073 1.9933287403 18.119966703
832 1 33.984691173 2.0463759014 18.011944552
833 1 37.830003553 2.1890797213 18.051733666
834 2 0.1376648816 4.0629448527 16.105052368
835 1 2.0879303813 6.1442480844 18.005241793
836 1 5.9683234424 6.1558784402 17.932888065
837 1 9.8985690655 6.0562091341 18.125966906
838 2 11.953800743 4.1463128934 16.072775226
839 2 8.0634789269 4.0090242378 19.895864668
840 2 11.963579841 7.9606874546 19.80077213
841 1 14.139966706 5.917971711 17.891167279
842 1 17.947539699 5.9099431085 17.76654754
843 1 21.988854334 6.0147102118 17.96573346
844 2 20.049607514 4.0698471625 19.950124609
845 2 23.945284248 4.0671953202 19.969883765
846 2 24.035984091 4.19770276 16.005860327
847 1 26.049297513 5.9897455547 17.996434919
848 2 28.032362108 4.0506719853 16.011821659
849 1 30.087592307 5.9731543798 18.212406734
850 1 34.16968991 5.9714664898 17.938410353
851 2 32.021445833 4.0820647588 19.848660281
852 1 37.900277364 6.0046367404 18.09251106
853 2 39.995689472 7.9679896225 16.102670551
854 1 2.0295928018 10.049779826 18.066098488
855 1 5.9785255492 9.989466977 17.903569514
856 1 9.8434887838 10.051342657 17.965386727
857 2 11.977394207 8.0105053201 16.159666085
858 2 8.0615475537 8.2049690546 19.984121775
859 2 8.1877364015 11.906310791 19.966829997
860 1 14.158158992 10.121590657 18.003714532
861 2 12.242511565 11.965476103 19.850036154
862 1 17.795070573 10.081988961 17.942742048
863 1 22.102776054 10.068194318 17.955685484
864 2 23.933430833 11.634815676 19.96352043
865 1 25.96745836 10.0534237 17.883992305
866 2 24.134872467 8.0128350182 19.840853336
867 1 30.155056125 10.123261922 17.889771192
868 2 32.009778749 8.0682293746 16.063339926
869 1 33.85077602 9.9492446952 17.878530903
870 2 35.93982684 8.0818621125 19.959663083
871 1 38.116643194 9.9899901105 17.863695953
872 1 2.0600167344 13.946190331 17.940994532
873 2 3.9961657004 12.07791298 19.972388078
874 1 6.0495853887 13.965399195 18.100739985
875 2 4.0641348267 15.954432225 16.030395277
876 2 7.9179505105 15.993262865 16.203791868
877 1 10.074298474 14.063983271 17.964889905
878 1 13.933381418 14.058061417 17.840453101
879 2 12.101335044 15.903401039 19.993594602
880 2 15.881306686 15.723704757 19.875385459
881 1 18.07738431 13.974287253 18.032128316
882 2 20.089494846 12.204346465 16.026932866
883 1 21.853781423 14.110551455 18.027110847
884 1 26.159721216 14.143611927 18.013342018
885 2 24.059834299 15.959304145 19.916798146
886 2 28.050477867 12.01701065 16.120690288
887 1 30.054959602 14.050579022 18.126045507
888 2 28.005872975 15.936015007 16.028795856
889 2 28.018229529 12.087528766 19.943672007
890 1 34.063574234 14.008375894 17.962456078
891 2 32.030977122 15.965497071 19.900287069
892 1 37.918532337 14.146826104 17.949271525
893 2 39.795123029 12.101657186 16.046753675
894 2 36.078835988 15.901637387 16.012228176
895 1 2.1961665699 17.954260588 17.827269176
896 1 6.0015540347 18.040497516 18.077813983
897 2 7.9654892973 19.896166586 16.142810468
898 1 9.8419078932 17.903485032 17.859857377
899 1 13.864079923 18.079379761 18.068777333
900 1 18.087629635 17.883164049 18.116019236
901 2 19.967230613 16.101372663 16.129991312
902 1 22.105153226 17.656917855 18.041172942
903 1 25.929822028 17.831059019 18.121514352
904 1 29.931410482 18.135759781 17.951348911
905 1 34.048468471 18.009814572 18.142795593
906 2 35.975588408 16.041561805 19.99065999
907 1 37.969098323 17.733979258 17.873217743
908 2 36.049968195 19.977402446 16.174902416
909 1 2.0716852746 22.049917898 18.048694339
910 2 3.927819159 20.01188377 19.986949662
911 1 5.9350071824 22.006978527 18.004111151
912 2 4.1004818979 23.967828925 16.017664717
913 1 10.115353687 21.853453489 17.97922587
914 2 11.90419073 23.907378204 19.985215502
915 1 13.954309723 22.074084192 18.208875972
916 2 15.74435398 20.016277951 16.055736127
917 2 15.865238687 20.074042425 19.949657049
918 1 18.005260362 21.9175734 17.914985291
919 2 16.020003416 23.853367674 16.045127983
920 2 16.129119523 23.898930284 19.934238821
921 1 22.049276532 21.848614833 17.775496852
922 2 23.989312316 20.043821721 16.044186981
923 2 20.063770531 23.878363451 19.947559446
924 2 23.816339711 23.990595581 19.986144315
925 1 26.027222469 22.006964101 18.125787291
926 1 29.904069212 22.059208642 17.941582821
927 1 34.161796617 21.907084058 18.059912361
928 1 38.19541962 22.033317935 17.942640049
929 2 36.103422164 23.930495352 16.093848019
930 1 2.0096948584 25.982320316 17.939533754
931 1 5.8584593179 25.97171888 17.838133654
932 1 9.984119475 26.054884761 18.008109849
933 2 11.990261507 27.81242314 16.08582502
934 2 8.0233812423 24.054505103 19.925663229
935 1 14.045197331 25.86283409 17.897700279
936 1 18.008913156 25.954809185 18.193004878
937 1 22.009662916 25.993020798 18.087082892
938 1 26.077471881 25.960503226 18.175245065
939 2 27.823641607 27.984338392 19.912902241
940 1 30.032167643 26.200995974 17.796537325
941 2 28.034004624 24.184350499 19.949849854
942 1 33.864619232 26.018830321 17.89788924
943 2 32.087695604 27.986563298 16.063492375
944 1 37.973134526 25.996581104 17.947991132
945 2 39.944691248 24.03955983 16.070384445
946 1 1.9916975361 29.909782711 18.040264859
947 2 0.0033800388 28.120231825 19.852675496
948 2 3.9988321002 28.023039635 19.769532993
949 2 0.1441236555 31.984201222 19.857507609
950 2 4.1438270673 28.00142084 16.06747228
951 1 6.2399951607 30.012374624 17.908214607
952 2 4.0173248623 31.794600095 16.025295599
953 2 7.9481843722 31.915619483 19.916590133
954 2 8.042377051 28.003038172 16.046388685
955 1 9.976577394 29.95076774 18.105615112
956 1 13.916332504 29.960493937 18.001588115
957 2 12.095473719 28.0129634 19.942663625
958 1 17.85373913 30.008608902 18.088749871
959 1 22.094458011 30.10052245 17.865055005
960 2 20.03837838 28.155340513 19.942585291
961 2 20.137973661 31.969737499 19.981239615
962 1 25.968926241 29.831960774 18.016251299
963 2 27.980619819 28.214066888 16.082976971
964 2 24.027962936 28.12192809 19.863457295
965 1 29.965197676 29.824477716 18.034189772
966 1 33.990804809 29.993275029 18.242645695
967 2 35.916447107 28.090744846 16.089475021
968 1 37.87401741 30.029095798 18.096853652
969 2 36.125614879 31.944002601 16.10165254
970 1 1.8159413677 33.795295388 18.121639595
971 1 5.9400785191 34.011507901 17.842548953
972 1 9.8064567238 33.807978121 17.886449656
973 2 8.2722895961 35.853342991 16.083074912
974 1 13.974384779 34.017534913 17.967247842
975 1 17.996310545 33.891691018 17.915885017
976 1 22.094605303 33.846112583 18.095145259
977 2 23.979211569 35.904918848 19.870035832
978 1 25.980735584 33.848846377 17.924876055
979 1 29.961762152 33.859052281 17.99096734
980 1 33.897260267 33.980170145 18.116123952
981 1 38.155949415 34.079273577 18.123110018
982 2 39.841229151 32.018196509 16.042229076
983 2 36.045707975 32.01254468 19.730551887
984 2 39.917946501 35.893354695 19.996227618
985 1 2.0930526832 38.001324792 18.124751235
986 1 6.1195171886 37.992476286 17.978336531
987 1 10.032717178 37.887914951 17.923345381
988 2 8.0795941958 36.046090199 19.980529338
989 1 13.983632896 37.945595903 17.925782201
990 2 15.962387476 36.121268603 16.040178458
991 1 17.950494362 38.033259001 18.014096219
992 1 21.97587172 37.964960272 17.935353528
993 1 26.00776208 38.07917997 17.877893161
994 1 29.925607786 38.19803876 17.837992464
995 2 31.773351335 39.937122263 19.96481114
996 2 32.031310133 36.016939026 16.004559351
997 1 33.796594195 38.128091213 17.958194178
998 2 32.04379723 36.112357429 19.905272935
999 1 38.006068764 37.938230277 17.874047387
1000 2 39.971941337 39.850779927 16.071761908
1001 2 39.989829726 39.95239802 19.908261956
1002 2 36.074705993 39.961562534 19.999843681
1003 1 2.0422547802 2.0309236899 22.091538202
1004 2 3.9082821079 3.9925228526 23.924404597
1005 1 6.0355701198 2.0909459578 21.800475443
1006 2 7.9924524923 0.0866161112 20.049221214
1007 1 9.9513815112 1.9388916827 21.994753039
1008 1 14.026980423 2.1620108657 21.907596832
1009 2 12.013656751 3.9507957377 20.114673587
1010 2 16.094729624 0.0119072924 20.057802465
1011 1 17.88438018 1.9070491963 22.126704101
1012 1 22.067119526 1.9152134125 21.898884585
1013 1 26.04290684 1.8919232689 21.988166351
1014 2 27.926566901 0.018042615 20.065409145
1015 2 27.841627638 3.8950673796 20.122407755
1016 2 27.817167559 3.9218688235 23.978877165
1017 1 29.809830206 1.9467520808 21.955519719
1018 1 33.793613378 1.960183372 22.061284545
1019 2 35.867854289 3.8088310786 20.148288616
1020 2 32.003177313 3.93415297 23.892163255
1021 1 37.910921463 1.9988423314 21.940203635
1022 1 1.8806204794 5.989673778 21.883319831
1023 2 3.9181478621 4.1475556655 20.00297045
1024 1 6.0815761178 5.918247551 22.097593127
1025 2 4.1649077498 7.8348617848 20.015787733
1026 2 7.848186892 4.0748315571 23.938571987
1027 1 10.022521401 5.950875505 21.930438701
1028 2 11.95328253 4.001020374 23.902356461
1029 1 14.044772179 5.9159280249 21.88649898
1030 2 15.968350863 7.966594521 23.972230043
1031 1 17.918977944 5.8467223738 22.167337836
1032 2 19.868298052 4.0580340943 23.855195137
1033 1 22.019018439 5.9558906713 21.961129454
1034 2 20.006293438 7.9544593389 20.059222921
1035 1 26.046867176 6.0898929144 21.872567257
1036 1 30.054636326 6.207147856 22.00700614
1037 2 28.09958205 7.9416899755 20.073781462
1038 2 28.0651875 7.9556327564 23.860904354
1039 1 34.037148347 6.1066054539 21.922847798
1040 2 32.143822461 7.9788979141 20.053596847
1041 1 37.915134817 5.9245695231 21.98446191
1042 2 39.870901556 4.032399275 23.939133652
1043 2 39.968364021 7.8240580606 23.906554485
1044 2 36.009797833 7.965460352 23.793771563
1045 2 0.0201363406 8.0672827411 20.020984813
1046 1 2.033234628 10.237897097 21.901441395
1047 2 0.1483979146 11.849770571 20.017610977
1048 2 0.0811167515 11.943465323 23.937002851
1049 1 5.775561035 10.107456458 22.086396039
1050 2 4.1201243339 8.1116215876 23.934250911
1051 1 10.017492059 9.8740695629 21.935944732
1052 1 14.097898024 9.9682598895 22.054707843
1053 2 15.987455763 8.1225102339 20.078831348
1054 2 12.062990448 8.1262621329 23.94152964
1055 1 17.934125456 10.076973182 21.997926152
1056 2 19.838579572 11.94575917 20.020854028
1057 1 21.959031205 9.9927873201 22.014846857
1058 2 23.947546939 8.0804857915 23.968967105
1059 1 26.025129951 9.8197907001 22.111463301
1060 1 29.819899659 10.109155113 22.076239737
1061 1 34.022498296 10.17966015 21.924269457
1062 2 35.960638838 11.938435012 23.942982314
1063 1 37.941429386 10.240168029 22.036208399
1064 2 36.147529674 11.910783472 20.043108294
1065 1 2.0864422063 13.964608034 22.036576943
1066 2 0.0652799628 15.960829503 20.045018227
1067 2 3.8717982672 15.938468819 20.058988092
1068 2 3.9707358137 15.812088488 23.97033801
1069 1 5.9521648867 14.000071558 21.828309886
1070 2 7.9185293964 15.802170961 20.10671822
1071 1 10.021728659 13.980906925 21.918299467
1072 2 8.1010032269 15.965028128 23.92699818
1073 1 13.831959262 13.969840782 21.832413089
1074 2 15.895076888 15.90782563 23.970607358
1075 2 16.013669963 12.022820413 20.03800802
1076 1 17.867239848 13.823161916 22.238973434
1077 1 22.045004215 13.95133821 21.965565325
1078 2 20.066736359 15.952912714 20.127469629
1079 1 26.137947285 14.022820769 21.806417603
1080 2 24.040626267 12.090195509 23.918793913
1081 1 29.953497588 14.0990072 21.903021159
1082 2 31.922720972 12.121138934 20.141395362
1083 2 28.215929867 12.080012891 23.874212622
1084 2 31.925148905 15.936853036 23.857489797
1085 1 34.09138938 13.949366815 21.879335505
1086 1 38.019633134 13.932400814 21.929326056
1087 1 2.1034766241 18.046436876 22.109704799
1088 2 0.1100099306 16.033563385 23.8420344
1089 1 6.0327853524 17.880887017 22.13473342
1090 1 10.007408044 17.977695447 22.054539571
1091 2 11.904162161 16.034339867 23.975467492
1092 2 8.0108245265 19.930552055 23.946418811
1093 1 14.015954469 17.98434924 22.044193119
1094 1 18.082637234 17.933967482 21.906885961
1095 2 19.928571432 16.017155339 23.917139179
1096 2 16.106415273 19.975089266 23.936620913
1097 1 21.979595875 18.073846825 21.813162201
1098 1 25.968213866 18.171952252 22.042571204
1099 2 28.193882424 16.091990169 20.328753056
1100 1 30.111237759 17.903019401 22.085380482
1101 2 31.682748344 19.907567876 20.081497551
1102 1 33.905642424 18.058336867 21.98574799
1103 1 37.892003847 17.909916023 21.981859771
1104 1 1.9698109588 22.030346856 21.98649493
1105 1 6.0245919052 21.879630443 22.08982742
1106 2 4.1551475536 23.989877132 20.018349095
1107 2 4.0228049391 20.011228571 23.945026926
1108 2 4.1272437047 23.882924776 23.991515974
1109 2 8.0347760251 20.103646913 20.071955721
1110 1 9.877619589 21.965890654 21.77143754
1111 2 11.931149726 20.124140142 20.021630531
1112 1 14.123998719 21.922298528 21.93841081
1113 1 17.913125347 21.967295078 22.008681007
1114 2 16.014828598 23.884859798 23.859109188
1115 2 20.163245359 20.097943051 20.067077205
1116 1 21.757529959 22.016660005 22.083907166
1117 2 23.942332322 20.170987145 20.052830661
1118 1 26.028853351 22.04697708 22.122355916
1119 2 27.947010396 20.023410337 20.001251671
1120 2 24.024686064 20.147739831 23.853698122
1121 2 27.997072241 20.002473426 23.932600646
1122 1 30.090691087 22.063090678 22.162248135
1123 1 34.008022794 22.126579787 22.004953647
1124 2 35.931969379 23.99572219 20.127166856
1125 2 35.997960599 20.028751068 23.927223197
1126 2 36.05918833 20.101259748 20.097078171
1127 1 38.10617671 21.937657741 21.963504869
1128 2 39.923072753 20.061599973 20.059750268
1129 2 39.94139166 23.955214332 20.224796249
1130 2 39.917822428 23.952277135 23.96063889
1131 1 1.8146995405 26.097012847 22.044358254
1132 1 5.9050254266 25.895257225 21.882457841
1133 1 9.8602866295 26.013178809 21.940758639
1134 2 8.1032891343 27.92630205 20.12283445
1135 1 14.022772062 25.919726564 22.162047306
1136 1 18.123346879 25.996919611 21.921125695
1137 2 16.00411116 27.781310828 20.061338501
1138 1 22.008668679 25.96096757 21.975198973
1139 1 25.966521815 26.028810727 21.945720722
1140 2 27.867750701 24.091523929 23.847411093
1141 1 30.072648565 25.994886567 21.858729055
1142 2 32.089203292 24.011597535 20.040074465
1143 1 34.046102775 26.027647352 21.978076533
1144 2 35.981591273 24.058140625 23.868664231
1145 1 38.076245828 26.112650039 22.089867164
1146 2 36.010863803 27.942149499 23.894849044
1147 1 2.0022976899 30.035404537 21.904253158
1148 1 5.8769825889 29.991196104 21.935006215
1149 2 4.0614350201 31.966810248 23.935212888
1150 1 10.008583689 30.02578736 22.006954283
1151 1 13.897175248 30.099018983 21.802818906
1152 2 15.942603491 31.99124142 20.022527058
1153 1 18.011179859 29.999866581 21.954340445
1154 2 19.904133414 28.063693664 23.977945659
1155 1 22.007903815 30.017387993 22.041012072
1156 2 23.995387625 31.989967824 20.013339281
1157 1 25.918896362 30.125829765 22.245705745
1158 2 24.020328886 31.926070796 23.975116703
1159 1 30.001051488 30.018338564 21.848830295
1160 2 31.959718462 28.039652628 20.01788072
1161 2 28.112835514 31.966104936 20.008751841
1162 2 28.017502286 28.012504255 23.971887342
1163 2 31.980621057 28.01513312 23.951981299
1164 1 34.051112744 30.102765845 21.964198491
1165 2 32.039889193 31.999334594 20.035661416
1166 2 35.998104496 31.900314174 23.916979881
1167 2 36.068376499 28.076389426 20.118289824
1168 1 38.014068514 30.046348729 22.008122948
1169 1 1.9555803612 33.988293793 22.150930468
1170 2 3.8954297781 35.893601603 20.095820941
1171 2 0.093887633 32.022756966 23.99476912
1172 2 4.0081285665 32.226828648 20.200591166
1173 1 5.8956197792 34.159206428 21.949149416
1174 1 9.945539935 33.886093766 22.0454212
1175 2 11.915698048 32.264949336 20.098408141
1176 1 14.019428357 33.74072481 22.098428212
1177 2 12.105549579 35.925590058 20.190437781
1178 2 12.18896105 32.155600777 23.814157308
1179 1 17.920884817 34.060612027 22.212912302
1180 2 19.844199465 35.959043298 20.012143696
1181 1 21.857882122 33.747154147 21.876417918
1182 1 25.92465828 33.81629296 21.980103951
1183 2 24.213206904 35.946295709 23.921076717
1184 1 30.116852262 33.86098518 22.044195159
1185 2 28.035792589 35.861173326 20.001795238
1186 1 33.976815845 34.020471773 21.930145126
1187 1 38.227446863 33.975166947 21.905854036
1188 2 36.069519332 35.973358086 20.078107136
1189 1 2.065747685 38.103225189 21.927769745
1190 2 0.0815381439 39.85273911 23.889202557
1191 1 6.0734360434 37.893874072 21.921500411
1192 1 10.02709573 37.859355194 22.015932911
1193 2 11.951806122 36.149819014 23.882827787
1194 1 14.11748032 37.99291302 22.071214062
1195 2 16.072192493 36.033474385 20.018744294
1196 1 17.929523526 37.968893628 21.964334216
1197 2 16.025466177 36.097740505 23.911379596
1198 1 22.064287667 37.987427427 21.912375114
1199 2 20.022477395 36.014597342 23.945919805
1200 1 26.045618365 37.852645436 21.755341558
1201 2 27.980112623 36.023248958 23.749170989
1202 1 29.930708148 38.04782673 22.199852732
1203 1 34.00079885 37.974275818 21.998309518
1204 2 32.033708849 39.996873089 23.850262235
1205 1 37.784064382 37.950552265 22.034609133
1206 2 39.995318946 36.079827126 23.795295538
1207 1 2.007582135 1.9654377458 26.084616473
1208 2 4.0142232822 0.1032901891 24.044239014
1209 1 6.0136397765 1.8637876968 26.061519855
1210 2 8.1593673595 0.0459518664 24.092558695
1211 1 10.034414881 1.7954476001 25.862892558
1212 2 8.144437294 3.9243537397 27.941772622
1213 1 14.108428988 2.004046895 25.984729912
1214 2 15.981729246 3.9441164254 24.22289137
1215 2 15.909098724 0.0897762913 27.920138353
1216 1 17.883590323 2.120970236 25.946977236
1217 1 21.867368315 1.9031959391 26.125188316
1218 1 25.909168944 2.1051336661 26.023040187
1219 2 27.964449886 0.079986643 24.050727031
1220 2 27.828878605 3.920399538 27.850309148
1221 1 30.054413673 1.9071599145 25.888654197
1222 1 34.051843413 1.8666685675 26.059366513
1223 2 35.931683507 0.1558419515 24.243072789
1224 1 37.991367576 2.0943009028 25.841231753
1225 2 36.054423897 3.9789387697 24.011418721
1226 1 1.8095527839 5.9186888031 25.92392365
1227 2 0.0438062686 7.8400188306 27.815935362
1228 2 3.9700279582 7.8062736844 27.946460593
1229 1 5.9774949234 5.8654581975 25.958902031
1230 2 7.9665879117 7.9928716791 27.919612528
1231 1 10.016121381 6.0836245116 25.983705561
1232 2 11.985449933 4.0313363025 27.954805352
1233 1 14.033780817 6.0199238686 25.797458693
1234 1 18.09733488 6.1282206408 25.993682008
1235 2 16.042708106 4.0535456242 27.934188104
1236 1 21.947088542 6.0356803964 25.884478317
1237 2 23.985187207 7.9015812214 27.972857331
1238 2 24.164185291 4.0112769354 24.095599117
1239 1 26.00770363 6.2179696815 25.955654967
1240 1 29.880889022 6.0520446107 26.102240425
1241 1 34.008096415 5.9994155893 26.069145947
1242 2 32.105676161 7.8757950059 24.007051348
1243 1 37.958303106 6.2530479535 26.004500143
1244 1 1.9259809897 10.089161664 25.966231838
1245 1 6.1587308218 10.125437523 25.865577056
1246 2 7.8451274104 8.0375895493 24.026795358
1247 2 4.0143765822 11.85121951 24.027459876
1248 1 9.9254492558 9.9772045496 26.040943849
1249 1 14.056622375 10.048026589 25.876586593
1250 1 18.10204704 9.8742144126 26.011600005
1251 2 20.089915596 8.0689665146 24.081378148
1252 1 21.890371337 9.883062272 26.04329954
1253 1 26.062350224 9.8825178225 25.841798007
1254 2 27.958474416 8.1309001729 27.785563771
1255 1 30.130367622 9.8853487818 26.058319041
1256 2 31.995934979 8.1101387143 27.767248399
1257 1 33.977430978 10.148143614 26.007110825
1258 2 35.930316172 8.0629493205 27.928828348
1259 2 32.072519262 11.930092158 27.936089041
1260 1 38.151373226 9.9611181062 26.010679791
1261 1 1.8965407784 13.946680464 26.070393197
1262 2 0.1414076112 15.994314357 27.93074407
1263 1 6.128762404 14.008506669 26.077204973
1264 2 7.880043113 12.147808744 27.969570285
1265 2 8.0951644058 12.1564796 24.113261753
1266 1 9.9095584146 14.0063863 26.172940747
1267 2 12.072375922 12.063757355 24.032323799
1268 1 13.923980564 14.025775611 26.088669015
1269 2 15.975951404 12.173811277 24.043209953
1270 2 12.06217438 12.18296712 27.942242954
1271 2 15.947400581 12.003577006 27.970386823
1272 1 17.848841935 13.862005015 26.06595263
1273 2 16.238406909 15.792625247 27.855827841
1274 2 20.065651268 12.009554429 24.022660832
1275 1 22.069317456 14.005503706 26.139646768
1276 1 26.08016633 13.991697977 26.044806189
1277 1 29.906629432 14.038555561 25.933416078
1278 2 31.901343575 12.220571502 24.004413469
1279 2 28.152018069 15.852307858 24.160087123
1280 1 34.100202276 14.066723838 25.895588808
1281 1 38.085601304 13.966688723 25.903458711
1282 1 2.0038509548 18.075673881 26.004726028
1283 2 0.0832391414 19.926469595 24.085377457
1284 2 0.0816083237 19.896311415 27.961566514
1285 1 5.9682568182 18.00882573 26.069943951
1286 2 4.0065502088 19.945977014 27.888023103
1287 1 10.163638433 18.006051748 25.939764069
1288 2 11.957182839 19.959242853 24.004733251
1289 2 11.941985052 16.017327884 27.966947601
1290 1 13.961324899 17.87252536 26.174418261
1291 1 17.993787603 17.890449204 26.054205954
1292 2 19.938034282 19.926089719 24.100899181
1293 1 22.058991915 17.986725204 26.161136889
1294 2 20.013452326 19.815957466 27.921847864
1295 2 24.022424946 16.019313635 24.045843297
1296 1 26.015226932 18.099170526 25.965723042
1297 1 30.097895259 17.934239227 25.896822741
1298 1 33.913922157 17.951670768 25.927911452
1299 2 32.041862202 19.951512402 24.092499524
1300 2 36.006998411 16.23469381 24.001681572
1301 1 38.048325962 18.016663585 26.007762889
1302 2 36.104494246 16.054704275 27.961941296
1303 1 2.04009771 21.788489113 26.04938769
1304 1 5.8531543928 22.068810562 26.282989119
1305 1 10.04906189 21.927246538 26.016825076
1306 2 8.168672267 23.962535159 24.114433206
1307 2 11.982939335 23.900858984 24.227405181
1308 1 13.962721943 21.984548831 25.910156054
1309 2 12.082701159 20.00184644 27.9918301
1310 1 18.009614085 21.852065505 26.041170594
1311 2 19.886078081 23.885087027 24.064271624
1312 2 16.011439939 23.894728639 27.954911672
1313 1 22.032925981 22.007824849 25.937870913
1314 1 26.091586437 22.04778168 26.019576305
1315 2 24.158697603 20.130932474 27.902538919
1316 2 27.965744193 20.050152563 27.989288525
1317 1 30.056193409 22.041718009 26.133437878
1318 1 33.925970327 22.041665686 25.945634176
1319 1 37.951040396 21.96546876 25.813922408
1320 1 1.9890678946 26.167740112 26.040934263
1321 1 6.0915164763 26.071157146 25.96313706
1322 2 7.9961667619 24.233571845 27.964038374
1323 1 9.9684437064 26.02507915 26.035186355
1324 2 8.0023553597 27.923700363 24.165294113
1325 2 8.0131373715 27.99535839 27.912102107
1326 1 14.145975584 26.034133525 25.945755614
1327 2 12.042288341 24.040727699 27.896487684
1328 2 12.053831766 27.958259183 27.954827064
1329 1 17.940210042 25.858632576 25.92600068
1330 2 16.002400591 27.945135913 24.140903438
1331 1 21.867329363 26.016517322 26.006634711
1332 2 24.053649498 24.108834714 24.060029381
1333 1 25.932119909 25.981331415 25.954121491
1334 2 24.043563185 27.973142362 24.211859245
1335 2 24.007325132 24.063729434 27.834521018
1336 1 30.080700496 25.946221061 25.980982061
1337 2 32.012082513 24.085285344 24.058020922
1338 1 34.082895279 25.914513611 26.075489619
1339 1 38.177296989 26.210353654 26.08345675
1340 2 0.1207589242 28.143669985 24.018622978
1341 1 1.9959136442 30.04325307 25.870454638
1342 2 3.9680042442 31.928420944 27.957642617
1343 2 4.2197193468 28.114419699 24.078179885
1344 1 6.1285508957 30.184979992 25.987125088
1345 1 9.8498806178 29.941336569 26.129493958
1346 2 11.936628529 31.951627963 27.824285638
1347 2 12.032837797 28.159430385 24.026010574
1348 1 13.996196765 30.176852686 25.935305384
1349 1 18.104882327 30.052597324 25.720294326
1350 2 16.062043216 31.74931353 24.094960004
1351 2 19.875685627 31.953118733 24.021616001
1352 1 21.909651153 29.959574719 25.9157382
1353 2 20.002254592 31.907716779 27.93872453
1354 1 25.787309186 29.902129398 26.03901298
1355 2 24.197576429 28.101100014 27.969978899
1356 2 27.927339786 31.970032905 27.970473078
1357 1 30.08367142 30.044835453 26.013461286
1358 2 28.138338189 28.037039787 27.979275955
1359 2 31.929572048 28.20215308 27.986650103
1360 2 31.970227038 31.983935396 27.959818643
1361 1 33.943119506 29.915197055 25.989248688
1362 1 37.96008856 29.996463195 26.083914267
1363 1 1.9747765075 34.183166404 25.974147018
1364 1 6.2300526939 34.18453592 25.995504325
1365 2 7.8694662858 32.052297435 24.18221943
1366 2 4.0456359209 35.943770209 24.081392869
1367 2 7.7180348497 35.861271532 27.964090445
1368 1 9.8539570905 33.925944168 25.914353362
1369 2 8.1368995013 35.909089888 24.124461768
1370 2 8.0047356465 32.015316469 27.958822461
1371 1 14.055579835 34.065622988 25.971791147
1372 1 18.137373168 33.91192841 25.920092188
1373 2 19.977918004 35.902186583 27.757572763
1374 1 22.129175925 33.933755935 25.84167339
1375 1 25.938743868 34.104210696 25.893070882
1376 2 24.037944286 32.048898258 27.94415616
1377 2 27.832433387 35.939683576 27.999436043
1378 2 28.009973687 32.049399519 24.067983802
1379 1 30.039029407 34.068805757 26.031658129
1380 2 31.973547389 32.129464082 24.062827801
1381 2 31.912816926 35.949205044 24.098757963
1382 1 34.05691547 33.809277853 25.948732391
1383 2 35.977606102 32.014612586 27.942729419
1384 2 35.957115463 35.955945653 27.996557651
1385 1 38.034004392 33.848730509 26.187424541
1386 1 1.9806599519 37.855590598 25.900247805
1387 1 5.8951194194 37.949502212 25.988715042
1388 1 10.087937901 37.964276799 25.9778571
1389 1 13.758699641 37.916929365 26.243242831
1390 2 12.212560296 39.993716366 24.069608471
1391 1 18.017449588 38.298556731 26.076105674
1392 2 16.094650407 39.832464881 24.027860077
1393 2 19.988304879 39.938680663 24.076940427
1394 1 21.862844486 38.09218394 25.889889116
1395 2 23.985409398 36.054164993 27.83919981
1396 1 25.871767245 37.915447463 25.922675107
1397 2 24.09503827 39.860697577 24.078818646
1398 1 30.006183701 37.967864106 25.905576659
1399 1 33.94006998 38.043600272 26.042536017
1400 2 36.081442583 36.059879234 24.00633299
1401 1 38.249242277 37.926907757 26.000730149
1402 1 2.0501398792 2.2116472251 30.041402865
1403 2 3.9623864779 0.084739459 28.046072499
1404 2 3.8498316153 3.9207401924 31.90862172
1405 1 5.9231201923 2.0659034853 30.122306004
1406 2 7.9275215301 0.092574734 28.063358367
1407 1 9.9607560898 1.9887487827 29.981983006
1408 2 11.981549377 0.0199317272 31.994767718
1409 2 12.12362403 0.0313384235 28.083392771
1410 1 13.908013061 2.0105995176 29.94831013
1411 2 12.040680228 3.9988712699 31.963868987
1412 1 18.152140999 1.9723200349 29.979198008
1413 1 21.945587374 1.9592710339 29.914466048
1414 2 20.002214234 3.9393962585 28.155091135
1415 2 23.991197841 3.9831897464 31.908883913
1416 1 26.056269402 1.9917917974 30.108532418
1417 2 24.156983914 3.8535091702 28.096578001
1418 1 29.931487671 1.9223194114 29.958969641
1419 1 34.03691261 2.182007967 30.034012524
1420 2 35.910261676 0.1278162036 28.041985689
1421 2 35.815205485 3.9294808794 31.997089067
1422 1 37.998628224 1.9111659345 29.988507426
1423 2 39.896917051 3.8467261954 28.064000475
1424 2 39.843317547 3.9658891144 31.946280523
1425 1 2.198955411 5.9744466478 30.104654683
1426 2 4.0515076965 4.0761281927 28.052871607
1427 1 6.0702357962 6.0661653661 30.015793356
1428 2 4.1135650626 7.9977365852 31.844297996
1429 1 9.8809133619 6.0546879418 30.049043233
1430 2 8.0382609251 4.0570098137 31.838098489
1431 1 13.943620682 5.9198034102 30.041927034
1432 1 18.037381875 6.0644733277 30.014557591
1433 2 16.058308505 4.1137466676 31.910808806
1434 1 22.08834897 6.0317309866 30.110465753
1435 2 20.143059073 7.924880638 28.173043435
1436 1 25.960669196 5.9995069284 30.055937048
1437 1 29.990279894 6.0491641645 29.929870516
1438 2 31.928910797 4.0176024118 28.098084981
1439 1 33.984209421 6.1222903295 30.040454073
1440 2 35.999401888 4.1449273056 28.038190003
1441 1 38.089675828 6.0453071555 29.947468475
1442 1 1.9011387175 9.9543050485 30.093654751
1443 1 6.1543235648 9.85766573 29.960519339
1444 2 7.9798766695 8.0805916202 31.8495464
1445 1 9.8660320272 9.8608184837 30.028408459
1446 2 11.854402079 11.817564022 31.939650762
1447 2 12.132445985 8.058388981 28.100165567
1448 1 14.047981444 10.174224521 30.047186753
1449 2 16.009459404 8.1010488431 28.084658822
1450 1 17.770617966 10.02804432 29.880426282
1451 2 19.944515361 11.933995514 28.020554534
1452 2 19.895723747 8.0440526354 31.899500667
1453 2 19.8945081 11.852321194 31.991658354
1454 1 21.958288592 10.127363279 30.124717307
1455 1 25.841741873 9.9263806215 30.164245638
1456 1 29.963589082 9.9353088201 30.238056349
1457 2 28.00332401 11.986571092 28.060123809
1458 2 31.902033154 8.1162176265 31.998294247
1459 1 33.999106553 9.999627578 29.907769841
1460 2 35.929950187 8.0733866121 31.749114841
1461 1 37.875182571 9.9197586618 29.991634425
1462 2 39.975714021 11.782257095 28.050520169
1463 2 36.076336333 11.973320253 28.028768096
1464 1 1.9547933994 13.929074773 29.973043684
1465 2 3.8518836318 12.130668759 28.028530787
1466 2 0.0530310716 15.996734786 31.999684381
1467 1 6.0450998072 13.838720128 29.923461762
1468 1 10.090237927 13.898796532 29.966358084
1469 2 8.1724560984 12.082887531 31.991610227
1470 1 13.875618838 13.995322719 30.044584287
1471 1 18.01093712 13.977845167 30.04094583
1472 2 19.856800282 15.941906205 28.030460071
1473 1 21.918048319 14.140058674 29.895163559
1474 2 24.108190375 12.012293552 28.00631744
1475 1 25.971707193 14.158767721 29.962096995
1476 2 24.038580388 15.928385639 28.111290321
1477 2 24.056303549 15.962961262 31.97818144
1478 1 29.93090576 14.028247855 29.865808271
1479 2 28.069322294 15.919097838 28.078371029
1480 1 34.030134445 13.940983548 29.966385327
1481 1 37.980197251 13.914441919 30.192530208
1482 1 1.9625430498 18.159694397 30.145727227
1483 2 3.909588701 16.099405203 28.042744948
1484 1 5.8502763148 17.959079216 29.865528466
1485 2 7.9599961984 16.030574189 28.04294999
1486 1 9.8929813466 18.011681348 30.002976732
1487 2 8.0127857702 19.932064576 28.041889834
1488 2 11.964903791 16.024848411 31.938747171
1489 1 14.046525334 18.167401582 30.084337433
1490 1 17.826270664 18.125968519 30.017838755
1491 2 16.07855684 19.873352228 28.10203953
1492 1 22.024666958 17.943927062 30.034523349
1493 1 25.897964733 17.943419818 29.955725565
1494 1 29.910598218 18.112672259 29.940007286
1495 2 31.886722656 16.220316376 28.014096039
1496 1 34.082241054 17.886673726 30.080020582
1497 2 35.850333164 19.962775165 31.963852902
1498 1 37.898474816 17.982297846 29.944083526
1499 2 36.040154131 19.92029195 28.009152006
1500 2 39.963209998 19.929099235 31.963638091
1501 1 2.0665597202 22.141727341 29.978761984
1502 2 3.9473655181 23.974101467 28.033654847
1503 1 6.0190744395 21.917157854 30.08505412
1504 2 4.0840872676 20.215555448 31.88336007
1505 2 7.9845135923 20.050074337 31.98494416
1506 1 9.8765216133 21.965041603 30.111294736
1507 2 11.983229491 23.94664009 31.944778723
1508 1 13.924768188 22.041011381 30.048583362
1509 2 15.903666664 20.039133829 31.935250545
1510 2 15.818140067 23.946969936 31.835133644
1511 1 17.985200809 21.9581961 29.905381855
1512 1 21.980117751 21.941378977 30.125113646
1513 2 20.110306109 20.010419026 31.906550361
1514 1 26.12493799 22.077903276 29.864967637
1515 2 27.991722504 20.104170077 31.960233635
1516 1 30.102427366 22.09142225 30.095453066
1517 2 31.783696414 20.024181074 28.170178361
1518 1 33.959157025 21.930814272 30.044707549
1519 2 32.005236834 23.834786726 28.03325248
1520 1 37.706603685 22.133323196 30.088114636
1521 2 0.0682668419 24.066938234 28.119272583
1522 1 1.960659482 26.121860804 30.062418769
1523 2 3.8424229833 27.997948294 28.036582517
1524 1 6.0129723422 26.150576255 30.07983111
1525 1 10.030226695 25.894716517 29.932128727
1526 1 13.896923376 26.083759897 30.073273048
1527 1 18.002487729 25.983886931 30.120086866
1528 2 19.943984161 24.045593695 28.0948277
1529 2 19.945157825 27.798761833 31.924407254
1530 1 21.981964253 26.069447677 30.051253887
1531 2 20.041375032 27.949920944 28.135757166
1532 2 23.95254978 27.891482206 31.998529364
1533 1 26.090129749 26.007260599 30.025582189
1534 2 27.935314729 24.100793857 28.145762676
1535 2 24.087946899 24.064286572 31.960216551
1536 1 30.026698117 26.092218019 29.82269226
1537 1 34.115502428 25.968960173 30.073479725
1538 2 36.198375836 24.017427076 28.083247386
1539 1 37.999664306 25.975608544 29.978530774
1540 2 0.154726465 28.135234357 28.121244934
1541 1 1.9127009736 30.220494016 29.930105444
1542 1 6.055902498 29.9411601 30.064870012
1543 1 10.062705624 30.067246075 30.098397805
1544 2 8.0161566172 28.072628089 31.9701507
1545 2 11.80676763 31.977438909 31.986612034
1546 1 14.089123331 30.18338502 30.108735049
1547 2 12.036477344 28.056041232 31.923219466
1548 2 16.067787873 28.081132996 28.042297577
1549 1 18.022340445 30.040668869 30.069045555
1550 1 21.956983578 30.071926698 29.862889235
1551 2 20.000306117 31.859458651 31.969782675
1552 1 26.121989652 30.090211646 30.132186883
1553 1 29.84530436 29.925291141 30.129207428
1554 2 31.915235251 31.94730369 31.800172219
1555 1 34.064514373 30.076696695 29.996944227
1556 2 35.855332377 28.108124198 28.200866315
1557 1 37.967920319 30.01387212 29.960823224
1558 2 39.903740374 31.752232174 28.039313308
1559 2 39.984695704 31.884655844 31.980710852
1560 1 2.0182950678 34.053251847 30.032580784
1561 1 5.8888376592 33.792220706 30.024857656
1562 2 4.0402198221 32.02274882 31.912052147
1563 2 4.1339336017 35.876249714 31.85281868
1564 1 10.052197102 33.862812005 29.90193654
1565 2 8.0295091659 32.042010792 31.908654314
1566 1 14.063448315 33.848953981 29.96741808
1567 2 15.962216364 32.105033372 28.104764507
1568 2 15.950488151 32.045351852 31.975398837
1569 2 12.214278647 35.911312086 31.927699826
1570 2 15.775975193 35.996503189 31.923869978
1571 1 17.825939554 33.939295578 29.891443811
1572 2 16.124717514 35.911532991 28.122544025
1573 1 21.960029144 34.037561944 30.031967103
1574 1 25.901434258 33.966990774 30.177488311
1575 1 30.000266018 34.063021359 30.104468271
1576 2 31.895530519 35.914683769 28.151610311
1577 1 33.969372946 33.719224748 30.005113344
1578 2 35.968529584 35.990989176 31.889919601
1579 1 38.049099051 33.983741633 30.15848233
1580 1 2.033459463 38.059405266 29.964225076
1581 2 4.0019546786 36.206389173 28.087641412
1582 1 6.0765407854 37.971265457 30.093747994
1583 2 7.918031598 39.921872433 31.940718587
1584 1 10.152113011 38.030627755 30.248489196
1585 2 12.000724553 36.077548394 28.004673517
1586 1 14.219859028 38.040470926 30.069094136
1587 2 15.823507683 39.791390375 31.917738104
1588 1 17.855469085 38.009383475 29.900895579
1589 2 19.889891257 39.913875121 28.098334155
1590 1 21.893782324 37.857503968 30.129094549
1591 2 23.920713839 39.843512137 28.199886377
1592 2 20.160089073 39.838804925 31.911530616
1593 2 23.990706775 39.96017462 31.982511585
1594 1 26.079866062 37.939133303 30.086623444
1595 2 24.059176529 36.006561312 31.999787654
1596 1 29.966370907 37.969594753 29.9667725
1597 2 28.16915823 39.897330647 28.002587704
1598 2 31.94911356 39.774528732 28.09152509
1599 1 33.856875764 38.041184213 30.101049702
1600 2 32.089572339 36.116822293 31.961155925
1601 1 37.90922995 38.084706331 29.80837059
1602 2 39.996985881 39.964117119 28.054076465
1603 2 39.848578396 36.1390158 28.016653953
1604 1 1.8986986503 2.0629532105 33.948531264
1605 1 5.9483831078 1.9492558514 34.129084936
1606 1 10.00278677 1.9171772158 34.135672973
1607 1 13.998369447 2.1552351149 34.043404076
1608 1 18.024510195 2.0431215762 33.959648699
1609 2 16.055268517 0.0772491398 35.888678174
1610 2 19.912380969 3.8252242154 35.801533903
1611 1 21.892390302 2.0424732788 33.963060836
1612 2 20.123337467 3.9143880631 32.077796707
1613 2 23.798474326 3.891272642 35.980663513
1614 1 26.131578816 1.9255153163 33.732354764
1615 2 27.945589949 0.1299543662 32.10213534
1616 2 27.829514703 3.987761608 32.086824614
1617 1 30.014759589 2.0354096142 34.026365852
1618 1 34.033678672 1.88998732 34.140962806
1619 2 35.931994684 0.0368074495 32.056403875
1620 2 35.963609797 0.0641812398 35.906103571
1621 1 38.154694468 1.8137811114 33.990522096
1622 2 39.935558716 0.0060888213 32.136182702
1623 1 1.9417158319 6.1667262345 33.844453693
1624 2 0.1648376597 7.9957258568 32.00720416
1625 2 0.0385255619 7.9467013706 35.893616844
1626 1 5.7923737339 5.8780461048 34.218533044
1627 2 4.1989576442 7.9985688246 35.778839582
1628 1 10.021146701 5.8117461618 34.060894887
1629 2 11.821546214 4.1443690394 35.899150432
1630 1 14.084697951 6.0566746516 34.058308548
1631 2 15.927539916 7.9554774886 35.897456533
1632 1 17.926649878 6.0840744273 33.94204803
1633 2 19.954526847 7.8656417039 35.894243148
1634 1 21.799787775 5.90731431 34.093886436
1635 1 25.958341393 6.0893526397 34.059265826
1636 1 30.106004098 5.8398603399 33.837815244
1637 2 28.024521732 7.9541203417 32.031534717
1638 2 32.105673498 4.0306204423 32.005991093
1639 1 34.146571535 5.9929572625 33.977214177
1640 1 37.82974149 5.9361291406 34.168603498
1641 2 39.914313618 4.0770214484 35.994435391
1642 2 36.033696489 4.0720189177 35.954059385
1643 1 1.9580447345 10.070285069 34.185949179
1644 1 6.0478161209 10.009554637 34.035017614
1645 2 7.8281156573 8.1565248147 35.934192429
1646 2 4.098492394 11.940342746 35.883522295
1647 1 9.8519364776 10.09702912 33.989997092
1648 2 11.833629206 8.1308143069 35.992263076
1649 2 12.139303411 8.093442326 32.240856744
1650 1 13.923569546 9.8979574316 34.01741108
1651 2 15.82483039 11.879445158 32.069588109
1652 2 12.036057182 11.977761307 35.982189506
1653 2 16.00185923 8.0590673382 32.030916918
1654 1 17.936224137 9.7971414251 33.945263568
1655 2 16.047206949 11.884142784 35.946398248
1656 1 22.030543852 10.036709526 33.889793991
1657 2 24.022296877 8.1400619385 32.07477967
1658 1 26.13422976 10.079959286 33.871569635
1659 2 24.047439054 11.883348695 32.043939448
1660 1 30.149703971 10.162170226 33.92476168
1661 2 28.197342235 11.868140145 32.126123174
1662 1 33.940324367 10.023899111 33.965389621
1663 2 32.121320968 11.889654325 32.221792292
1664 2 35.945962919 11.975307313 35.934114826
1665 1 37.937727854 10.135929875 33.944640038
1666 2 36.055465966 11.926871053 32.071727551
1667 1 1.9430379004 13.962408345 33.975518441
1668 2 3.9140309485 12.124436078 32.040268582
1669 2 3.9444604283 15.953776014 32.030049693
1670 1 5.8602921712 13.977320059 34.079398636
1671 1 9.8208496058 13.904982448 34.047039733
1672 2 8.1455033589 15.991499118 35.728267272
1673 1 13.941065376 14.04691406 33.972558677
1674 1 17.988960731 13.799351658 33.937528379
1675 2 16.111502913 15.940171945 32.106986098
1676 1 21.99024774 13.926862669 33.907046617
1677 2 20.014598176 15.900370391 32.08908752
1678 2 20.134823214 12.095836858 35.775622141
1679 1 26.055235692 13.93013499 34.043697108
1680 1 29.915399762 13.877072132 33.86691507
1681 2 28.266353303 12.168021714 35.992755035
1682 2 28.104610481 15.767989196 35.906350546
1683 1 34.106382412 14.116264953 34.014043983
1684 2 32.02799279 12.113032418 35.964523538
1685 1 38.113517913 14.188487757 33.961714846
1686 2 39.961539141 12.100378309 32.037216685
1687 2 39.941060737 15.971612191 35.958206869
1688 1 2.08854039 17.871925056 34.179508824
1689 1 5.9940061513 18.076475752 34.058687617
1690 2 7.8147888108 16.11145335 32.003747533
1691 1 9.7582420598 17.90315602 33.933970815
1692 2 11.899073522 16.068487623 35.839987717
1693 2 8.0833789146 19.964022403 35.859599728
1694 2 11.937343353 19.992238181 35.834091431
1695 1 13.900869633 18.032774794 34.080594886
1696 1 18.143822479 17.901794562 33.981799312
1697 1 21.967493658 18.174623009 34.018360662
1698 2 20.128446133 16.060074085 35.92934716
1699 1 25.990808068 18.08190053 34.032605801
1700 2 24.216857716 16.097313352 35.989967506
1701 2 24.026071444 19.871876434 35.937866221
1702 2 28.019302822 16.11006393 32.016840321
1703 1 29.872784088 18.08238192 33.910144166
1704 2 31.976710474 16.060349774 32.006258741
1705 2 31.973108141 19.920513862 35.828424154
1706 1 33.786977772 17.951101923 33.990460257
1707 2 32.002370984 16.0278201 35.935260704
1708 2 36.030340905 16.098419853 32.205739951
1709 1 37.889286029 17.749004293 33.941940573
1710 1 2.0103579638 22.068704939 33.869880204
1711 2 0.2056820224 23.980070987 32.051509872
1712 2 0.1117978765 20.014055562 35.883646834
1713 2 0.2377578578 23.892964329 35.898120529
1714 1 5.9158178167 21.909234255 34.043812031
1715 1 9.9939988314 21.973399229 33.891448543
1716 2 11.932987445 20.048124221 32.022175884
1717 1 13.99186063 21.994863556 33.981230958
1718 1 18.209984676 22.082038958 33.965481119
1719 2 16.086095839 23.984334158 35.974600045
1720 1 22.081127765 22.166059326 33.852584475
1721 2 24.042257179 20.003331508 32.000572412
1722 1 26.202678955 21.951022957 34.245356707
1723 2 27.997219943 23.978619075 32.029626029
1724 1 30.116033453 21.9258368 34.10130125
1725 2 32.125507921 20.045230396 32.191014751
1726 1 33.951450593 21.96468054 34.015020331
1727 2 35.944738309 23.915108415 32.033412958
1728 2 35.910417158 20.032426127 35.938966565
1729 1 37.938795942 22.011258928 33.920925571
1730 1 1.9159814717 25.884929286 34.028360089
1731 2 0.1154169489 27.869324254 32.116007852
1732 2 3.9359595533 24.044983824 35.919776591
1733 2 4.0037232411 24.048837024 32.114715244
1734 1 5.8906709309 25.930805426 33.965196559
1735 2 7.9579799798 27.866397594 35.956677987
1736 2 8.0071869506 24.010052441 32.241659688
1737 1 9.8622911121 25.919129635 33.978339061
1738 2 11.978890481 27.85417248 35.996205014
1739 1 13.985128129 26.063821331 34.15970396
1740 2 15.992682435 27.919217138 32.064841792
1741 1 17.850517908 26.04499479 34.032552832
1742 2 20.158065982 24.07435882 32.005706048
1743 1 22.037572565 26.209358361 33.931112871
1744 1 26.089201036 25.818517527 33.858319219
1745 1 29.910928144 25.920088814 33.926137792
1746 2 28.111001391 27.873236048 32.180428
1747 2 32.015117099 24.045607319 32.036248871
1748 1 33.972529692 26.285805081 34.129930403
1749 2 35.866950836 27.81093151 32.01934866
1750 2 35.949940079 27.835678406 35.891008169
1751 1 38.105243506 25.981302264 33.996360783
1752 1 1.9973318373 30.041354719 33.93067676
1753 2 3.9674369824 28.150937338 32.158250171
1754 1 5.8817265159 29.969987848 33.979060831
1755 1 9.8487189188 30.013700015 33.958935075
1756 2 8.0691891238 31.965905965 35.923214251
1757 2 11.815272659 31.961433477 35.931387073
1758 1 13.920212773 30.040569979 33.988466021
1759 2 15.95648472 28.087373392 35.92589
1760 2 15.917753277 31.946142607 35.942823661
1761 1 18.080189214 30.099440295 33.975410251
1762 1 22.06972077 29.957602612 34.010085776
1763 1 25.976835037 29.962319523 33.811919758
1764 2 24.142110383 31.949838325 32.130906053
1765 2 24.061999541 28.057321075 35.928535581
1766 1 30.132665288 30.075666542 34.041464562
1767 2 28.041765762 31.951850826 32.026243274
1768 2 28.113972041 28.056908073 35.822479901
1769 2 31.765338048 28.037945593 35.973217022
1770 2 32.002070781 28.047708008 32.055057545
1771 1 33.929476995 29.994893869 33.900563361
1772 1 37.933070011 29.963591601 33.915792782
1773 1 1.8795358876 33.944182998 33.988221658
1774 1 6.2244256736 33.957836753 33.828482312
1775 2 7.8616364085 35.989948673 32.181307975
1776 1 10.067736984 34.114733816 33.892218247
1777 2 11.945665743 35.894569543 35.817192964
1778 1 13.876824234 34.166556178 33.974019647
1779 1 18.00135793 33.894310075 33.973243108
1780 2 16.010878635 35.789916914 35.925460319
1781 1 21.962146114 34.101584212 34.104620266
1782 2 20.027390734 35.989224118 32.011796149
1783 1 26.088816524 34.046749384 34.036752041
1784 1 30.010732884 34.009165249 33.977098383
1785 2 28.02399949 35.890952563 32.053441303
1786 2 31.850774232 32.095865663 35.912798567
1787 1 34.206483525 34.141312794 34.087141153
1788 2 36.146816022 32.029459839 32.005013994
1789 1 37.847035621 33.893911221 34.195657001
1790 2 39.95463531 35.971307981 32.075153602
1791 1 2.0795801827 38.133738717 34.041635662
1792 2 3.9449462654 39.796880552 35.916528399
1793 1 6.0072857054 37.722435197 34.062794511
1794 2 4.0741621431 39.98585957 32.076185849
1795 2 7.8700357263 39.941006799 35.975857895
1796 1 9.9929111099 37.929423813 34.093987268
1797 1 13.85359296 37.974861618 33.993344946
1798 1 17.974294407 38.005098549 34.120307694
1799 1 21.985914207 38.013097823 34.039991664
1800 2 20.057279189 36.022904484 35.989863729
1801 1 25.99815131 38.022262657 33.840752126
1802 1 29.945687955 37.901638119 34.115074364
1803 2 31.996507565 39.858926889 35.913758375
1804 2 31.972218206 36.119145973 35.874684731
1805 1 34.070056897 37.928714933 33.932092437
1806 2 32.074206118 39.976534179 32.206633404
1807 1 37.890342726 37.905956656 34.013172291
1808 2 36.075495559 36.067654287 35.918087551
1809 1 1.8389940713 2.0311317101 38.023639876
1810 2 3.9433876826 3.8536387366 36.023014083
1811 1 6.0334701987 2.0380085278 38.069969308
1812 1 9.9872478155 2.1298028706 37.975046505
1813 2 11.942720708 0.0859786926 36.12833211
1814 2 8.0451014904 3.8713470324 36.008608567
1815 1 14.150532697 1.9761661527 37.99269872
1816 1 18.05945533 1.915427173 38.041197198
1817 1 22.045070975 2.0419305512 38.052026383
1818 2 24.075040265 0.0972226312 36.02778398
1819 1 25.922032234 1.9901706534 38.084757246
1820 2 27.805048764 0.1771232955 36.078015452
1821 1 30.144654279 2.0089598581 37.960966325
1822 1 34.071890114 1.9394774635 38.076225655
1823 2 32.004278708 3.8995647218 36.098895029
1824 1 38.125295681 1.9082129405 38.042794307
1825 2 36.10113998 0.0743270786 39.970355084
1826 2 39.986575568 0.0281048398 36.001266459
1827 1 1.9644979302 6.018543296 37.953977763
1828 2 3.790363348 4.0009411855 39.99684633
1829 2 3.9721677583 7.928505048 39.894686014
1830 1 6.0931578362 5.9771081012 38.045271256
1831 1 10.020500611 6.090374624 38.122971932
1832 1 13.749359002 6.2039654182 38.072505274
1833 2 16.070089885 4.0302736314 36.156854832
1834 1 18.06660082 5.869646536 38.133571198
1835 2 16.033598523 4.0664374584 39.993732913
1836 1 21.87282955 6.1404611329 37.988452914
1837 2 23.941701274 4.0158180698 39.94188105
1838 1 25.971682568 5.9167471577 37.948276902
1839 2 27.965856231 4.1895738102 39.967946671
1840 2 24.057645006 7.8967154706 36.094469773
1841 2 27.907383504 7.9925103212 36.170891394
1842 2 28.043275863 4.2289575488 36.143449494
1843 1 29.950276878 6.0767052642 37.835422855
1844 2 31.994737209 4.0680950558 39.998584986
1845 2 31.881727139 7.8115484071 39.951117552
1846 2 31.984209897 7.8600886773 36.214235821
1847 1 34.112770769 6.0169338776 37.835489865
1848 2 35.732009633 4.0238377282 39.999550169
1849 2 35.892411495 7.9527661322 36.06506661
1850 1 37.997141528 5.9356005953 37.881270286
1851 1 1.8614932821 9.9555871099 37.944737415
1852 1 5.8696434766 10.209622779 37.978096542
1853 1 10.124248352 10.127394333 38.03070511
1854 2 8.0529245065 11.963858682 39.806663809
1855 2 8.1960006778 11.93968227 36.283662081
1856 1 13.798571889 10.117550379 37.948784072
1857 2 12.054509368 11.817664075 39.947226292
1858 1 18.034192849 10.018142468 38.072806014
1859 1 21.906984095 10.012012525 38.027731682
1860 2 23.980984258 8.1199776531 39.894433443
1861 2 23.963914559 11.841825089 36.083527469
1862 1 26.060957195 10.030066342 38.000427283
1863 2 27.982022707 8.0739701579 39.929422025
1864 1 30.01679512 9.804323105 37.967109902
1865 1 34.103849273 10.053314325 37.966635178
1866 2 35.986184577 8.0189713663 39.765944164
1867 2 35.912519109 11.933509749 39.899676259
1868 1 37.943109701 9.7316381452 38.104037909
1869 2 0.2559681058 12.30572611 36.031375941
1870 1 1.9706571592 14.093739302 37.972158748
1871 2 3.9346113859 15.943185152 36.001869109
1872 1 5.9520809049 13.974722366 38.035345161
1873 1 10.046130755 13.913559797 37.991991398
1874 1 14.153979095 13.789379329 37.897097863
1875 2 15.983138924 15.922037733 39.92907976
1876 1 18.023267377 14.065430772 38.02800503
1877 2 16.002598589 15.983854286 36.076285469
1878 1 22.009947686 13.895941872 38.001111276
1879 2 23.867751936 12.109337639 39.931874715
1880 1 25.981608272 13.918409587 38.017695407
1881 2 27.92678403 12.046940528 39.96932851
1882 1 29.814041272 13.916961578 37.868021454
1883 1 34.033531733 13.939061501 38.143227592
1884 2 35.964934984 15.969094232 36.113899312
1885 1 38.142582713 13.983763918 38.12434879
1886 2 36.051027508 15.961697517 39.925351658
1887 1 2.0744172805 17.998327225 37.969186202
1888 2 3.9271926633 16.176804582 39.891778648
1889 1 6.0470461795 18.20796306 38.181013787
1890 1 10.125893828 17.79588751 37.855728699
1891 1 13.95386087 18.048983605 38.091959358
1892 1 17.789016151 17.882747252 37.995351105
1893 1 21.987916677 17.865172228 38.05827348
1894 2 20.022613965 16.00418228 39.881034763
1895 2 20.050485076 19.874052391 36.007284827
1896 1 26.022450509 17.908890204 38.149818598
1897 2 24.005923525 16.191565634 39.945946906
1898 1 30.081764316 18.049034369 37.973754824
1899 1 33.793509358 17.966945646 38.13949409
1900 1 37.831840655 18.06705799 37.971606795
1901 1 2.0113043168 22.100741462 37.910515393
1902 2 3.9455997507 20.000605145 39.821231126
1903 2 4.0838030684 20.083193281 36.007359298
1904 1 6.0443132016 21.951217941 38.025847435
1905 2 4.0317926807 23.99670329 39.843779437
1906 1 10.065429301 22.127000641 37.873074692
1907 2 8.0626512467 20.08633423 39.957661533
1908 1 13.964742957 22.003953982 38.028498118
1909 2 12.183602525 20.039042514 39.933850028
1910 2 16.023225927 20.07505662 36.080644963
1911 1 17.953046971 21.993021457 37.954568298
1912 2 16.013962637 20.067630088 39.824450608
1913 2 19.958439697 23.988950913 36.005190602
1914 1 22.152047419 22.077516551 38.107709641
1915 1 25.922182265 21.904493662 37.971723055
1916 2 27.945340345 20.196631842 36.066692785
1917 2 27.936524829 23.981248205 36.001738137
1918 1 29.954724956 22.07903777 37.906740232
1919 2 31.941919262 23.973773176 36.0115437
1920 1 34.225839805 22.139898094 37.960625192
1921 2 32.060396455 20.003604747 39.907829343
1922 2 35.950718787 23.999324256 36.082667132
1923 1 38.040577822 22.121820046 37.872666056
1924 1 2.0073066041 25.884642931 37.931104165
1925 2 3.8679432986 27.963534849 36.137234484
1926 1 5.9244534909 25.803942937 38.08463397
1927 2 7.9999298186 24.122242721 39.983709575
1928 2 4.0412270614 27.93100592 39.937707711
1929 2 8.1028897244 24.023390353 36.004220273
1930 1 10.004065461 25.831811301 38.084470978
1931 2 11.802416568 27.961647256 39.916675972
1932 2 12.02508922 24.02516246 36.033752524
1933 1 14.026041485 25.969373356 38.272653506
1934 1 18.055531499 25.988503369 37.940263319
1935 2 16.053750393 24.032879104 39.962041386
1936 1 22.064100437 26.211732618 37.952116538
1937 2 20.065239473 27.837744166 36.014955449
1938 2 24.05386271 24.103711864 36.05868904
1939 1 26.093378887 26.053691223 38.092174412
1940 1 30.219512991 26.090838441 37.868837685
1941 1 33.882214884 26.055256084 37.94320519
1942 1 37.92907104 25.871757281 37.959993721
1943 2 39.921128616 24.212549083 39.9056681
1944 2 36.018256745 24.1307897 39.950994962
1945 1 1.9423557376 30.106694175 37.920292452
1946 2 3.9150401727 31.851782987 39.923360681
1947 2 3.9488956699 31.914771582 36.009986005
1948 1 6.0133143316 30.036896998 38.068006183
1949 1 9.8592815996 30.171408044 38.036739609
1950 2 8.0145790303 28.0117854 39.948887179
1951 1 14.20924448 30.176962237 38.104432118
1952 1 17.921433303 30.082367044 37.901589724
1953 1 21.949110946 29.992389734 38.117562417
1954 2 20.168991364 28.072098653 39.984361433
1955 1 26.052705377 29.885434336 37.936536932
1956 2 24.135367019 28.203681691 39.901810366
1957 2 27.970483881 31.723857476 36.007542404
1958 1 29.925611439 30.176971945 37.894522546
1959 1 34.040367635 29.776674848 37.977918766
1960 1 38.056778826 29.991257311 38.020255218
1961 2 39.809277887 28.156117676 36.074066998
1962 2 39.916105078 31.992762532 36.070429852
1963 1 1.90513939 33.972737604 38.098633849
1964 2 3.999723596 35.975184998 36.200844431
1965 1 6.0365096325 34.034390538 38.106363662
1966 1 10.088767589 34.093974761 37.728520934
1967 2 8.0723968177 32.033957075 39.999698387
1968 2 8.16654527 35.983913735 36.045742023
1969 1 14.116796083 33.998470472 38.043819434
1970 2 15.971715926 35.957146286 39.982159527
1971 1 18.119647105 33.909145815 38.011282486
1972 2 19.952267038 32.10903573 36.064622181
1973 1 21.846914462 34.041029659 37.888800632
1974 2 23.959125953 32.079210546 36.064356319
1975 1 25.9821698 34.002335811 38.026762808
1976 2 27.893021962 32.022907035 39.923581527
1977 2 24.100223219 35.903244289 36.028967348
1978 1 29.974449006 34.026652094 37.938891758
1979 1 33.977348352 34.052392463 37.802599146
1980 2 32.169125875 35.945105567 39.986140816
1981 2 36.100888618 32.125144394 36.077095725
1982 1 38.02449802 34.078200901 38.057214714
1983 2 39.915459685 35.984110207 36.078896312
1984 1 2.0742371248 37.98137342 37.955827179
1985 1 6.0055338413 38.168336697 38.05507021
1986 1 9.9545928679 37.91349157 37.910475651
1987 2 8.1755208822 39.925555432 39.938613642
1988 1 13.989517977 37.977202436 37.963609091
1989 1 17.906927412 38.00120246 37.993531826
1990 2 16.094295071 39.895491135 39.885668451
1991 2 19.935478072 39.98998911 36.134369851
1992 1 22.181171821 37.956695365 37.918589982
1993 2 20.122672311 39.863825088 39.967606774
1994 2 23.963722142 39.981549007 39.966044446
1995 1 26.001037069 37.97434058 38.147685395
1996 2 27.901685553 36.040099134 36.062786234
1997 1 30.258625398 38.145605699 38.202762699
1998 2 28.00335859 39.956636081 39.889991334
1999 1 34.121524808 37.990449353 38.004971658
2000 1 37.893657722 37.996185792 37.957307362
