2000
Lattice="4.000000000000e+01 0.000000000000e+00 0.000000000000e+00 0.000000000000e+00 4.000000000000e+01 0.000000000000e+00 0.000000000000e+00 0.000000000000e+00 4.000000000000e+01" Properties=species:S:1:pos:R:3:type:I:1 Time=0.001
P         1.9481890141e+00  2.0360139431e+00  2.0184587364e+00          1
In        4.0916253038e+00  2.3554994788e-02  1.0640346811e-01          0
P         5.8651410278e+00  1.9474148594e+00  2.0201837038e+00          1
P         1.0127043076e+01  2.0053732980e+00  1.9132033526e+00          1
In        1.1886991255e+01  1.6210591219e-01  4.5529033895e-03          0
In        8.0665018764e+00  3.9346878936e+00  1.2575235997e-01          0
In        8.1091475883e+00  3.9054171269e+00  3.9113267991e+00          0
P         1.4045253501e+01  2.0177023796e+00  2.1555385155e+00          1
In        1.2020757906e+01  3.9446291508e+00  2.2048232780e-02          0
P         1.7951502273e+01  1.9675727522e+00  1.9319445389e+00          1
P         2.2027296692e+01  2.0924570316e+00  1.7551871289e+00          1
P         2.6035760813e+01  1.9566739562e+00  1.9874224421e+00          1
P         3.0105736473e+01  1.9302838266e+00  2.1364989821e+00          1
In        3.1902980328e+01  3.0415974242e-02  8.7061364406e-02          0
P         3.3897991535e+01  1.9720953430e+00  2.0589794663e+00          1
P         3.8047025099e+01  1.8647979897e+00  1.7873713338e+00          1
In        3.9946518136e+01  3.9798544757e+00  4.6804508138e-02          0
P         1.9717741137e+00  6.0378116640e+00  1.9203689263e+00          1
P         6.0512643711e+00  5.9638872599e+00  1.9003941429e+00          1
P         1.0045006254e+01  5.9225269450e+00  2.0588726728e+00          1
In        8.1663186033e+00  7.9461430847e+00  1.1492050468e-02          0
P         1.3929038276e+01  6.0502231698e+00  1.9083449312e+00          1
In        1.5841694043e+01  7.9114030754e+00  6.6535376721e-02          0
P         1.8006685023e+01  6.0207800875e+00  2.0399553905e+00          1
In        1.9995582271e+01  4.1066503585e+00  1.2563778133e-01          0
In        1.6090494666e+01  4.1311666012e+00  3.9942486286e+00          0
P         2.1784353112e+01  6.0667085501e+00  1.9451658306e+00          1
In        2.0027673459e+01  7.9926166868e+00  3.9036682666e+00          0
P         2.5901748231e+01  5.9241913323e+00  1.9237132762e+00          1
In        2.7871679338e+01  7.9506572365e+00  3.9036252480e+00          0
P         3.0086797382e+01  5.9930310927e+00  2.0685719467e+00          1
In        3.1913828556e+01  7.9533600241e+00  3.9264719387e+00          0
P         3.3871373896e+01  5.9628768715e+00  2.0788767100e+00          1
P         3.8081133142e+01  5.9966024286e+00  1.9937148877e+00          1
In        9.7108362793e-03  8.0667833527e+00  1.0890914400e-01          0
P         2.1112758071e+00  1.0082487480e+01  1.8599553521e+00          1
P         6.0005306531e+00  1.0053571069e+01  1.8815560441e+00          1
In        4.0418667308e+00  8.1764339589e+00  3.8430892420e+00          0
In        7.9549519225e+00  1.1976700158e+01  3.8687328518e+00          0
P         9.9482630655e+00  1.0070824064e+01  2.0224903334e+00          1
In        1.2121396974e+01  8.1710982783e+00  6.3682939180e-02          0
P         1.3992395722e+01  1.0199539432e+01  1.8921795155e+00          1
P         1.7962760323e+01  1.0176946828e+01  1.9142168485e+00          1
In        1.9970976681e+01  8.0311767571e+00  5.0550503232e-02          0
In        1.6028027129e+01  1.1916624110e+01  5.3134560854e-02          0
P         2.1957566502e+01  9.8185572169e+00  2.0434055345e+00          1
P         2.6036306460e+01  1.0113636093e+01  1.9886893349e+00          1
P         3.0335751893e+01  1.0122725156e+01  1.9555668320e+00          1
P         3.3958967136e+01  1.0087559110e+01  2.0450800093e+00          1
P         3.8071780408e+01  1.0119511483e+01  1.9835557094e+00          1
In        3.6058985616e+01  8.1939907162e+00  3.8721229485e+00          0
P         1.9829653515e+00  1.3860582559e+01  1.8931792635e+00          1
In        3.9850056025e+00  1.2066707212e+01  3.9276197338e+00          0
In        4.0097938385e+00  1.2119234624e+01  9.5651237130e-02          0
P         6.0379973009e+00  1.3841442580e+01  2.0124161973e+00          1
P         9.8946961583e+00  1.3953559836e+01  1.9702554851e+00          1
In        8.0050388777e+00  1.5781290837e+01  7.8412020188e-02          0
In        1.1815217319e+01  1.2042361426e+01  3.7396347205e+00          0
In        1.1920190979e+01  1.5858500835e+01  3.8758596786e+00          0
P         1.4124838967e+01  1.4037340710e+01  1.9698144045e+00          1
P         1.7954081238e+01  1.4134470731e+01  2.0607340278e+00          1
In        1.9988126769e+01  1.2003512383e+01  2.3522178593e-02          0
P         2.1955150360e+01  1.3987358265e+01  2.2155913358e+00          1
In        2.0080119428e+01  1.5782331456e+01  3.9606573848e+00          0
In        2.3917685970e+01  1.5809800837e+01  3.9270049162e+00          0
P         2.6021198972e+01  1.3793162593e+01  2.1264263029e+00          1
P         3.0023615618e+01  1.4159512187e+01  2.0855688186e+00          1
In        2.8022602295e+01  1.2153544855e+01  3.9133074677e+00          0
In        2.8002910382e+01  1.5831271622e+01  3.8254008119e+00          0
In        3.2103827172e+01  1.2026382921e+01  7.0674615293e-03          0
P         3.4060596974e+01  1.4047036645e+01  2.0615151765e+00          1
P         3.7858136674e+01  1.4108071837e+01  2.1009725732e+00          1
In        3.9969015797e+01  1.2113562826e+01  8.5023835380e-02          0
In        3.9907580825e+01  1.5899452900e+01  3.9156104315e+00          0
In        3.6029025123e+01  1.5959876059e+01  3.9266860536e+00          0
P         1.9924790196e+00  1.8027362750e+01  2.1260317124e+00          1
In        3.9956942668e+00  1.6208423534e+01  3.9462884284e+00          0
P         5.9041284814e+00  1.7809171385e+01  1.9681602616e+00          1
In        7.9938743020e+00  1.6119880287e+01  3.9439900327e+00          0
P         9.9599934586e+00  1.8039204716e+01  2.1361122905e+00          1
In        1.1954085296e+01  1.6020933337e+01  6.2061944831e-02          0
In        8.0142623291e+00  1.9996408292e+01  3.9887365013e+00          0
P         1.3901719581e+01  1.7992496922e+01  1.8971278556e+00          1
In        1.5995498380e+01  1.6027588590e+01  3.8137330219e+00          0
P         1.7970470625e+01  1.8089311566e+01  1.9685722925e+00          1
P         2.1929927950e+01  1.7861106994e+01  2.0137054341e+00          1
P         2.6032666687e+01  1.7982359577e+01  1.9241124948e+00          1
In        2.8010010010e+01  1.6031296652e+01  7.0462309246e-02          0
P         3.0008529319e+01  1.7943944700e+01  1.9811141686e+00          1
In        2.8063898264e+01  1.9875130659e+01  3.9895983588e+00          0
In        3.2185845321e+01  1.6275899163e+01  2.0266807415e-01          0
P         3.4036059716e+01  1.8220144842e+01  1.9854354490e+00          1
P         3.8074905630e+01  1.8134347534e+01  2.0877971600e+00          1
In        3.9947693561e+01  1.6044498940e+01  8.3762067927e-02          0
In        3.9897814258e+01  1.9887793784e+01  1.3454824763e-01          0
P         2.1028092252e+00  2.2024555087e+01  2.0549330718e+00          1
In        2.7831194152e-02  2.3987563176e+01  3.9111101986e+00          0
In        3.9452139927e+00  2.3986400235e+01  3.8925613201e+00          0
P         5.9751722083e+00  2.1963492352e+01  1.9330287816e+00          1
P         9.9535074729e+00  2.1995476802e+01  2.0839147718e+00          1
In        8.1008803193e+00  2.3846315635e+01  3.9721900189e+00          0
P         1.4085304712e+01  2.2120829066e+01  1.9696664576e+00          1
In        1.2066334612e+01  2.3947009443e+01  1.3816848792e-01          0
P         1.7913864272e+01  2.1982181770e+01  1.9936857991e+00          1
In        2.0227934860e+01  2.0196012895e+01  8.7190928970e-02          0
P         2.2162352852e+01  2.1971613641e+01  1.9267817849e+00          1
In        2.4050914646e+01  2.0081727303e+01  8.2706663016e-02          0
P         2.5883779513e+01  2.2033323803e+01  1.9777106380e+00          1
In        2.8004458375e+01  2.0006303012e+01  4.5264728099e-02          0
P         2.9861226420e+01  2.1992548513e+01  1.9209262569e+00          1
In        2.8052177864e+01  2.3908750098e+01  5.9070837647e-02          0
P         3.3816773639e+01  2.2118964494e+01  2.0294945709e+00          1
In        3.5997684880e+01  2.0121822300e+01  2.9923422396e-02          0
P         3.8000664765e+01  2.1972390812e+01  2.0064952088e+00          1
In        3.6035562363e+01  2.0180108974e+01  3.9398524600e+00          0
P         2.1310628144e+00  2.6060883458e+01  1.9003800632e+00          1
P         6.0755455941e+00  2.5988875312e+01  2.0996826358e+00          1
P         9.9462303119e+00  2.5971993566e+01  1.9682622358e+00          1
P         1.3891212529e+01  2.6086848670e+01  1.9138104972e+00          1
P         1.8126565831e+01  2.6055398921e+01  2.0298013752e+00          1
In        2.0037355982e+01  2.4036893922e+01  7.5602153490e-03          0
P         2.2088241069e+01  2.5883134952e+01  1.9382597845e+00          1
In        2.3954489488e+01  2.4172271613e+01  2.6713429282e-02          0
P         2.5940823546e+01  2.6103775671e+01  2.2584982140e+00          1
In        2.7814224818e+01  2.4205500665e+01  3.9437417585e+00          0
P         3.0076947453e+01  2.5905610539e+01  2.1030112155e+00          1
In        3.1990073096e+01  2.4093870485e+01  1.0700950315e-02          0
In        2.8087709743e+01  2.7843473602e+01  5.4033635660e-02          0
P         3.3886672445e+01  2.5908547320e+01  2.0433500385e+00          1
In        3.5964562894e+01  2.7955689593e+01  3.8613686541e+00          0
P         3.7892839575e+01  2.6016996225e+01  2.0887197770e+00          1
In        3.9980375744e+01  2.7874642281e+01  1.4136606586e-02          0
P         1.9483072917e+00  2.9903291901e+01  2.0124516851e+00          1
In        1.7236467483e-01  3.1834745295e+01  3.9371688072e+00          0
P         6.0543099256e+00  2.9849344127e+01  2.0248971995e+00          1
P         1.0082520635e+01  3.0085485360e+01  2.1240444602e+00          1
P         1.4002451808e+01  2.9991119767e+01  1.8287981504e+00          1
In        1.5906554578e+01  2.8003274095e+01  1.3755369491e-01          0
P         1.7822816420e+01  3.0063650891e+01  2.2054811023e+00          1
In        1.9977149971e+01  2.8105875763e+01  3.9629398552e+00          0
P         2.2003784003e+01  2.9948818670e+01  2.1509815839e+00          1
In        2.3974942436e+01  2.8034428229e+01  3.7652233585e+00          0
In        2.3941119135e+01  3.1967443394e+01  3.9715605595e+00          0
P         2.6163054535e+01  3.0044808333e+01  2.0422982280e+00          1
P         2.9855503486e+01  3.0042629620e+01  1.9794186912e+00          1
In        3.1940339012e+01  2.8028993565e+01  1.3469732183e-02          0
In        3.1992551640e+01  3.1947619046e+01  4.4318546695e-02          0
P         3.3998948632e+01  3.0188427093e+01  1.9618592442e+00          1
In        3.5999045862e+01  2.8083837363e+01  6.3291161274e-02          0
P         3.7907085720e+01  3.0014557215e+01  2.0035577495e+00          1
In        3.6198651974e+01  3.1975446220e+01  3.6285924124e-02          0
In        3.9817675442e+01  2.8138115771e+01  3.9647435620e+00          0
In        3.6024430115e+01  3.1856915673e+01  3.8443971738e+00          0
P         1.9474289448e+00  3.3914406687e+01  2.1341820594e+00          1
In        3.9676890809e+00  3.5991234268e+01  1.1960776558e-02          0
In        1.1106451438e-01  3.5904201933e+01  3.9197737175e+00          0
P         5.9594929560e+00  3.3893209083e+01  1.8206314188e+00          1
In        7.9529808977e+00  3.2056349652e+01  3.9145060540e+00          0
P         1.0203398907e+01  3.3723777266e+01  1.9581176637e+00          1
In        1.1925314387e+01  3.2053697303e+01  6.2615270064e-02          0
In        1.1913082285e+01  3.2276085332e+01  3.9895965471e+00          0
In        8.1943161507e+00  3.5948791630e+01  3.7531797194e+00          0
P         1.3962545921e+01  3.3870559743e+01  2.0581786648e+00          1
In        1.2011221171e+01  3.5976080059e+01  2.5165125323e-02          0
In        1.6022260694e+01  3.2097871648e+01  3.4282514811e-02          0
P         1.7887053364e+01  3.3860725034e+01  1.9216973312e+00          1
In        1.6076350518e+01  3.2163967970e+01  3.9219832716e+00          0
In        2.0238170138e+01  3.2072333978e+01  8.2846880807e-02          0
P         2.2171299330e+01  3.4111021234e+01  1.9856263725e+00          1
In        2.3978508229e+01  3.2021289235e+01  8.3081619892e-02          0
In        2.0029543459e+01  3.5919797561e+01  9.5964450752e-02          0
In        2.0001933174e+01  3.5964416546e+01  3.9596588354e+00          0
P         2.5851133447e+01  3.4083989319e+01  2.0008678627e+00          1
P         3.0008898595e+01  3.4017320396e+01  2.0653605247e+00          1
P         3.3898667706e+01  3.3997970373e+01  1.8065441999e+00          1
P         3.8099010284e+01  3.4001319014e+01  1.8365274031e+00          1
In        3.9831845330e+01  3.2149345484e+01  7.0321678172e-03          0
In        3.9966494294e+01  3.5868150463e+01  1.5367966577e-01          0
P         2.0970140911e+00  3.7904121223e+01  2.0471733339e+00          1
In        8.6164455114e-03  3.9930201032e+01  7.6784079491e-02          0
P         6.0464008755e+00  3.7883654000e+01  1.8314744759e+00          1
In        4.1149916402e+00  3.9928160027e+01  3.9153109142e+00          0
In        8.0070306292e+00  3.6089315490e+01  1.0612827560e-01          0
P         9.9803405711e+00  3.8121283899e+01  1.9445724400e+00          1
In        1.1927948193e+01  3.6012017797e+01  3.9961754052e+00          0
P         1.4032379860e+01  3.8184873111e+01  1.9486870530e+00          1
In        1.2086615533e+01  3.9855661232e+01  3.9575390653e+00          0
In        1.5948443740e+01  3.6022823649e+01  3.9838167533e+00          0
P         1.8023116413e+01  3.8077525026e+01  2.0165460475e+00          1
P         2.2101947101e+01  3.7990638263e+01  1.8750405713e+00          1
In        2.3904195723e+01  3.6027948867e+01  5.9559544655e-02          0
P         2.5990493286e+01  3.7985620879e+01  1.8848562277e+00          1
In        2.7913737335e+01  3.6120316928e+01  8.0888279598e-03          0
In        2.7893364433e+01  3.9853150486e+01  3.8712613233e+00          0
P         2.9818579390e+01  3.8220038519e+01  1.7978415767e+00          1
P         3.4084555989e+01  3.8000117978e+01  1.9976485620e+00          1
In        3.5998844803e+01  3.6033846979e+01  1.8990498282e-01          0
In        3.5923087963e+01  3.9935646339e+01  3.9458045057e+00          0
P         3.7981114062e+01  3.8081866791e+01  2.0340837545e+00          1
In        3.9937803315e+01  3.9987983864e+01  3.9979296681e+00          0
In        3.6100923619e+01  3.6026699281e+01  3.9109002987e+00          0
P         1.9624097174e+00  2.2188520305e+00  6.0563740921e+00          1
In        2.3379581225e-01  3.9654146643e+00  4.0049037761e+00          0
P         6.0191314862e+00  1.8439265874e+00  5.9192588562e+00          1
P         9.8595543490e+00  1.9143157198e+00  6.1985697514e+00          1
In        1.1996745086e+01  6.7874395264e-02  7.9620550850e+00          0
P         1.3887487794e+01  2.1164268494e+00  6.0362483443e+00          1
P         1.7849447580e+01  2.0020898768e+00  5.9153658777e+00          1
In        1.9907160121e+01  2.9288659942e-03  4.0441644637e+00          0
P         2.1984209305e+01  1.9272868561e+00  5.7927181307e+00          1
In        2.3923261364e+01  1.2492646193e-01  7.9133074342e+00          0
In        2.4039781310e+01  8.5758665945e-02  4.0754795002e+00          0
P         2.6062654046e+01  1.9400431804e+00  5.9843759865e+00          1
P         2.9872189915e+01  2.0142083219e+00  5.9348732222e+00          1
In        3.1940330206e+01  6.5743340131e-02  4.0263090352e+00          0
P         3.3948431229e+01  2.0146054300e+00  5.9486449091e+00          1
P         3.8072056383e+01  2.0299221384e+00  5.9402556861e+00          1
In        3.9839170485e+01  3.8649998730e+00  7.9875041153e+00          0
P         1.8868792360e+00  5.9235177872e+00  6.0229215384e+00          1
In        3.8344371764e+00  7.9981007445e+00  7.8966801463e+00          0
In        4.0205048224e+00  4.1213025841e+00  4.1206343675e+00          0
P         6.0011651459e+00  5.8901100550e+00  5.9168641932e+00          1
In        7.9520428851e+00  7.9317697030e+00  4.0325488961e+00          0
P         1.0001656733e+01  5.8319259039e+00  6.0880826941e+00          1
In        1.1932244860e+01  4.0428423014e+00  4.2827435175e+00          0
In        1.1994092854e+01  7.9088523920e+00  4.0047301455e+00          0
In        1.1879654215e+01  4.1429318199e+00  7.9112996871e+00          0
In        8.0423970136e+00  7.7765763685e+00  7.9435561466e+00          0
P         1.3880627720e+01  5.8332857855e+00  5.9391161254e+00          1
In        1.5956139058e+01  7.9771045688e+00  7.9758542293e+00          0
P         1.8114725642e+01  5.9302069767e+00  5.8740610656e+00          1
In        1.9945905595e+01  4.0266413733e+00  4.0772017506e+00          0
P         2.1940097028e+01  6.0158043599e+00  6.1807227026e+00          1
In        2.0087519308e+01  4.0003245378e+00  7.9869498296e+00          0
In        2.0036660001e+01  7.8801256790e+00  7.8801643300e+00          0
In        2.3853344472e+01  7.9966418840e+00  7.9773764151e+00          0
In        2.4021961657e+01  4.0874383842e+00  4.0023212398e+00          0
P         2.5979635931e+01  6.1045345883e+00  6.0632262055e+00          1
In        2.7888949650e+01  7.9960394237e+00  7.9901236654e+00          0
In        2.8055898431e+01  4.0526382887e+00  4.0118121249e+00          0
P         2.9999367569e+01  6.0419406955e+00  5.9038187450e+00          1
In        3.2117483226e+01  4.0383491216e+00  4.0363778417e+00          0
P         3.3995561608e+01  6.0176098010e+00  6.1537460735e+00          1
In        3.6076019001e+01  4.0858304678e+00  4.0430287827e+00          0
P         3.8056823048e+01  5.9489764399e+00  6.0490053997e+00          1
P         1.9684338632e+00  9.8880278499e+00  5.9742450893e+00          1
In        8.5903782568e-02  8.0280554993e+00  7.9561849795e+00          0
P         5.9703533653e+00  1.0052415059e+01  6.0882214155e+00          1
In        7.9165816145e+00  1.1917181384e+01  7.9719998135e+00          0
P         1.0148555692e+01  9.8523199876e+00  6.0231707447e+00          1
P         1.4104680349e+01  1.0085803444e+01  6.2203738796e+00          1
In        1.5957903497e+01  1.1781991878e+01  4.0436707834e+00          0
In        1.6174595184e+01  8.0661617158e+00  4.1330251076e+00          0
P         1.7837858171e+01  9.8729089227e+00  6.0296726115e+00          1
In        1.9934200255e+01  1.1944895378e+01  7.8933025568e+00          0
P         2.2060369710e+01  9.9781225746e+00  6.0639324499e+00          1
In        2.0124027455e+01  1.1959607981e+01  4.0552075627e+00          0
In        2.3834810208e+01  1.1924570905e+01  4.0260344261e+00          0
In        2.3952963627e+01  1.1948168089e+01  7.9042683293e+00          0
In        2.4114937002e+01  8.1192770551e+00  4.1931881879e+00          0
P         2.6000971812e+01  9.7842525298e+00  6.0056184759e+00          1
P         2.9916584089e+01  1.0105100110e+01  5.8311507739e+00          1
P         3.3913695908e+01  9.8617940633e+00  6.1420554975e+00          1
P         3.8206620005e+01  9.9552307615e+00  6.0324431951e+00          1
In        3.9881139121e+01  8.0110997224e+00  4.0846389368e+00          0
In        3.9997195305e+01  1.1951309258e+01  4.0380135255e+00          0
P         1.8243776379e+00  1.4008001077e+01  5.8956332779e+00          1
P         6.1831049804e+00  1.3871244900e+01  6.0184760612e+00          1
P         9.8826758126e+00  1.4061209054e+01  5.9716361114e+00          1
P         1.4020029770e+01  1.4018772599e+01  6.1255413615e+00          1
P         1.7818328380e+01  1.4091875821e+01  6.1521989092e+00          1
P         2.2144537291e+01  1.4077134171e+01  5.9383110269e+00          1
In        2.0114803078e+01  1.5903197565e+01  7.9826582040e+00          0
P         2.6025777723e+01  1.4151413667e+01  6.1002823575e+00          1
In        2.7951165764e+01  1.2118056881e+01  7.8569241130e+00          0
P         2.9877801077e+01  1.4109018185e+01  5.7056399655e+00          1
In        3.1981939170e+01  1.2037399572e+01  4.0658259040e+00          0
P         3.3998642575e+01  1.4086214380e+01  5.9817669983e+00          1
In        3.5733990274e+01  1.2061338186e+01  4.0366557493e+00          0
In        3.5995386580e+01  1.5952962090e+01  7.9789797132e+00          0
P         3.8011915371e+01  1.3842642762e+01  5.9452858190e+00          1
In        3.6095651029e+01  1.2001595128e+01  7.9068951911e+00          0
P         2.0975503560e+00  1.7927868372e+01  6.0786114391e+00          1
P         6.1870080272e+00  1.7993208337e+01  6.1888893584e+00          1
P         1.0054114127e+01  1.7879922042e+01  6.0407177260e+00          1
In        1.1976315797e+01  1.6215265501e+01  7.9758092820e+00          0
In        8.1945189084e+00  1.9793244289e+01  7.8847640280e+00          0
In        1.1920776393e+01  1.9985994955e+01  7.9326963628e+00          0
P         1.4073800869e+01  1.8127470810e+01  6.0040545747e+00          1
In        1.5967689277e+01  1.9909054523e+01  7.9611865150e+00          0
P         1.8102796157e+01  1.7987605059e+01  6.2189568388e+00          1
In        1.6004798672e+01  1.9837300551e+01  4.1909057945e+00          0
In        1.9858662959e+01  1.9799014274e+01  4.0153288788e+00          0
P         2.2037573801e+01  1.8102570361e+01  5.9069540432e+00          1
P         2.5945115242e+01  1.7917128756e+01  6.0546711352e+00          1
In        2.4058683919e+01  1.9996811485e+01  4.1006309155e+00          0
P         2.9989570937e+01  1.8115090756e+01  5.9275543170e+00          1
In        2.8117499357e+01  1.6008627346e+01  7.9688050920e+00          0
In        3.2097377491e+01  1.6166182284e+01  4.1904753034e+00          0
P         3.3975622934e+01  1.7999027579e+01  5.9978226465e+00          1
P         3.7994355280e+01  1.7948027135e+01  6.0463149755e+00          1
In        3.9985501110e+01  1.9946716613e+01  7.8364475404e+00          0
P         2.0368443582e+00  2.1974909028e+01  6.1631009517e+00          1
In        3.8334400948e+00  2.0011440205e+01  4.0674018810e+00          0
P         5.9477365939e+00  2.1959731804e+01  5.8947188970e+00          1
In        4.1961876445e+00  2.0046333262e+01  7.9227933112e+00          0
In        4.0907980809e+00  2.3988901154e+01  7.8802229071e+00          0
P         9.8894098246e+00  2.1973528926e+01  6.1356692193e+00          1
In        1.2010625072e+01  2.0002211762e+01  4.0515475301e+00          0
P         1.4052647473e+01  2.2012453395e+01  6.0560630677e+00          1
P         1.8017785248e+01  2.1884147900e+01  6.0311193779e+00          1
P         2.2088018240e+01  2.2112057929e+01  6.0552590748e+00          1
In        2.0027026914e+01  2.0088265505e+01  7.9564117093e+00          0
P         2.6066333258e+01  2.2128023895e+01  6.0819543187e+00          1
P         2.9994055522e+01  2.1890895490e+01  6.0631220253e+00          1
In        2.8045017318e+01  2.3932943225e+01  7.9212010046e+00          0
In        3.2089025095e+01  2.0191836081e+01  4.0950519856e+00          0
P         3.4014781392e+01  2.2003784024e+01  5.8421407764e+00          1
In        3.5949089411e+01  2.0128830145e+01  7.8749774210e+00          0
P         3.7948416411e+01  2.2039422839e+01  5.9435872487e+00          1
In        3.9846203261e+01  2.0033444742e+01  4.1152735318e+00          0
In        3.6036004551e+01  2.3963133423e+01  7.9550489102e+00          0
P         1.9025361023e+00  2.6083620409e+01  5.9638844996e+00          1
P         6.2933081361e+00  2.6045295624e+01  6.0714844569e+00          1
In        4.0912279518e+00  2.7938067916e+01  4.0835646465e+00          0
In        7.9065459724e+00  2.7925314259e+01  4.1221967753e+00          0
P         1.0015118581e+01  2.6019482318e+01  5.9182088117e+00          1
In        8.1102941670e+00  2.4107010731e+01  7.9812817037e+00          0
In        1.2072349852e+01  2.4074048449e+01  4.2041927523e+00          0
P         1.3909140565e+01  2.6020589623e+01  5.9665948030e+00          1
In        1.5950895180e+01  2.4031977077e+01  4.2758991141e+00          0
In        1.2020893673e+01  2.7889350620e+01  4.0557677098e+00          0
In        1.5964971580e+01  2.7941182949e+01  4.0221200749e+00          0
In        1.5998803198e+01  2.4131938938e+01  7.9591441318e+00          0
P         1.7953806529e+01  2.6020389673e+01  6.0931450182e+00          1
In        1.9883011531e+01  2.4042501269e+01  4.0063573538e+00          0
P         2.2132263701e+01  2.6051436040e+01  6.0297837516e+00          1
In        2.3877467308e+01  2.4014308392e+01  4.1078916840e+00          0
P         2.6069072867e+01  2.6105356274e+01  6.0507838568e+00          1
In        2.7974063107e+01  2.7756881624e+01  4.0579797059e+00          0
P         3.0192169309e+01  2.5835923768e+01  6.0358876389e+00          1
In        3.1994913564e+01  2.4032675067e+01  4.0376318641e+00          0
In        3.1959934836e+01  2.7909189426e+01  7.9428523427e+00          0
P         3.4095166623e+01  2.6020101372e+01  5.9351706337e+00          1
In        3.5918506038e+01  2.4221128981e+01  4.0531388561e+00          0
P         3.8079734402e+01  2.5933244872e+01  5.9675555840e+00          1
In        3.6154861363e+01  2.7848104309e+01  7.8397205519e+00          0
P         1.9448483305e+00  3.0104673502e+01  5.6503682626e+00          1
In        3.9589630814e+00  3.1992802009e+01  4.1635252561e+00          0
P         5.9631505408e+00  3.0163824201e+01  6.2141067290e+00          1
P         9.9782651246e+00  3.0098705981e+01  5.9296305947e+00          1
In        8.0939562894e+00  3.1903433333e+01  7.8544007987e+00          0
P         1.4082260620e+01  3.0171404748e+01  6.1155089677e+00          1
P         1.7976191179e+01  2.9976342695e+01  6.1289765111e+00          1
P         2.2255460134e+01  2.9993659576e+01  5.9299211840e+00          1
In        2.0040540876e+01  3.1927889800e+01  4.1351714804e+00          0
P         2.5984083757e+01  3.0030124059e+01  6.0636036685e+00          1
P         2.9952259550e+01  2.9979759902e+01  6.0648060222e+00          1
In        2.8074513743e+01  3.1919527925e+01  4.0256032888e+00          0
In        2.8054107571e+01  3.1856882431e+01  7.9589457908e+00          0
In        3.2108333133e+01  2.8168299738e+01  4.0698768028e+00          0
P         3.3907831458e+01  3.0169348127e+01  6.0549978018e+00          1
P         3.7953131336e+01  2.9938284162e+01  5.9411767062e+00          1
In        3.9828539733e+01  2.8038864326e+01  7.9263043289e+00          0
P         1.9504128977e+00  3.4049808700e+01  6.2286696612e+00          1
P         6.0342314863e+00  3.3894881223e+01  5.9196283142e+00          1
P         9.8407912085e+00  3.4024287196e+01  5.9598804114e+00          1
In        8.0226959261e+00  3.5900631604e+01  7.9753022307e+00          0
P         1.3962551239e+01  3.4050962502e+01  5.9177718718e+00          1
In        1.2142528431e+01  3.5900633140e+01  7.9568013992e+00          0
P         1.7917219927e+01  3.4074213223e+01  6.0533683991e+00          1
P         2.1783040535e+01  3.3973021096e+01  5.9133278796e+00          1
P         2.5999660248e+01  3.4117568439e+01  6.0056133508e+00          1
In        2.4130634225e+01  3.5925980314e+01  4.0281238576e+00          0
In        2.7951073801e+01  3.5827736711e+01  4.0639711384e+00          0
P         2.9907004324e+01  3.3796990320e+01  6.0758448199e+00          1
In        3.1843230942e+01  3.2128123618e+01  4.1360630531e+00          0
P         3.4065945184e+01  3.3919326012e+01  5.9793405568e+00          1
In        3.5949941609e+01  3.2076624533e+01  7.9177649145e+00          0
P         3.8003958185e+01  3.4017093773e+01  6.1215038799e+00          1
P         2.0688103994e+00  3.8111428462e+01  5.8820179912e+00          1
In        4.0706470790e-02  3.9946573640e+01  7.9247296048e+00          0
In        3.9112571875e+00  3.9934804271e+01  7.9593571962e+00          0
In        4.0032811548e+00  3.6074488955e+01  4.0544908196e+00          0
P         5.9080771700e+00  3.8052401445e+01  5.9888427389e+00          1
In        7.8477763947e+00  3.9906125267e+01  4.0657557170e+00          0
P         9.9290515671e+00  3.7827476846e+01  6.1187715948e+00          1
In        8.0011979466e+00  3.9810953042e+01  7.8260924222e+00          0
P         1.4043192241e+01  3.7981099199e+01  6.1563771338e+00          1
In        1.5917623661e+01  3.9964952402e+01  7.9129525674e+00          0
P         1.8066496880e+01  3.8006761383e+01  6.0257071288e+00          1
In        1.6038953253e+01  3.9885207946e+01  4.1071922952e+00          0
In        1.6088568922e+01  3.6215004013e+01  7.8898133148e+00          0
P         2.2079854909e+01  3.7903487382e+01  5.8541839712e+00          1
In        2.0150357600e+01  3.9960340476e+01  7.9165778102e+00          0
P         2.5876507546e+01  3.7882136076e+01  6.0587102770e+00          1
P         3.0040392965e+01  3.7965122748e+01  6.0908803311e+00          1
In        3.1967470010e+01  3.6164144781e+01  7.8949169239e+00          0
In        3.2069971085e+01  3.6078013355e+01  4.1246561249e+00          0
P         3.3857262080e+01  3.8039015020e+01  5.9063105455e+00          1
In        3.2076339066e+01  3.9882090340e+01  7.8742047354e+00          0
In        3.5804209849e+01  3.6120344716e+01  7.9700860597e+00          0
P         3.8034736931e+01  3.8089139558e+01  6.0145867498e+00          1
In        3.6053236699e+01  3.9952235275e+01  7.8982040352e+00          0
P         1.9430401440e+00  2.0723925792e+00  9.9492517268e+00          1
In        2.5437492745e-02  5.9494721849e-02  1.1976051276e+01          0
P         5.8915734594e+00  1.9865753190e+00  1.0082104516e+01          1
In        4.0050625314e+00  3.8262494426e+00  8.0318171677e+00          0
P         9.9186790630e+00  1.9447127207e+00  1.0069887059e+01          1
In        8.0755906967e+00  7.4425026122e-02  1.1913390732e+01          0
In        1.1927590100e+01  1.1613195002e-02  1.1910982131e+01          0
P         1.4117263434e+01  2.0985685258e+00  9.8624634945e+00          1
P         1.7952497299e+01  2.1796186136e+00  9.9447637005e+00          1
In        1.6023907041e+01  3.8877522702e+00  8.1423677834e+00          0
P         2.1955125029e+01  2.0512846781e+00  1.0072467438e+01          1
In        2.3909085504e+01  3.8168651484e+00  8.0217285803e+00          0
P         2.5946542642e+01  1.9079237081e+00  1.0072831116e+01          1
In        2.8166466123e+01  1.7223702691e-02  8.0489267946e+00          0
P         3.0003279334e+01  1.8692636430e+00  9.8474766718e+00          1
In        2.8060681682e+01  3.8638581139e+00  1.1978125040e+01          0
P         3.4000435740e+01  1.9688865665e+00  1.0106382380e+01          1
In        3.2123094427e+01  9.0176631972e-02  1.1930035445e+01          0
P         3.7970602584e+01  2.0171970503e+00  1.0130699198e+01          1
In        3.6015295403e+01  3.9251679402e+00  8.0245441684e+00          0
In        3.6123388101e+01  4.7205494507e-02  1.1999781862e+01          0
P         1.9940051974e+00  5.8345106745e+00  1.0068099352e+01          1
In        2.4634149130e-02  4.1506870218e+00  1.1994381715e+01          0
P         5.9242730920e+00  5.9946725062e+00  1.0026371689e+01          1
In        7.9037682459e+00  4.0113988112e+00  8.0990330915e+00          0
P         1.0152039133e+01  6.1722346007e+00  1.0096824851e+01          1
In        1.1961751060e+01  7.9376533361e+00  8.2194269655e+00          0
P         1.4157985886e+01  5.9435796023e+00  9.8532099379e+00          1
P         1.7996479187e+01  5.9336885426e+00  9.9629850844e+00          1
In        1.6099940112e+01  7.9897544225e+00  1.1964375010e+01          0
P         2.1764035593e+01  5.9734940992e+00  1.0106699146e+01          1
P         2.6236279254e+01  5.9012428670e+00  9.9377532208e+00          1
In        2.4129747214e+01  4.0641143794e+00  1.1945220303e+01          0
In        2.8105381967e+01  4.1266880884e+00  8.0351985528e+00          0
P         3.0254142030e+01  5.9131087360e+00  9.9880467145e+00          1
In        3.1875425057e+01  4.0080067708e+00  8.1626116562e+00          0
P         3.3787867084e+01  5.9728015298e+00  9.9893612051e+00          1
In        3.2102303589e+01  7.9893364622e+00  8.0419468811e+00          0
P         3.7969108549e+01  6.0837846372e+00  1.0102717906e+01          1
P         2.1582596577e+00  9.9562402241e+00  9.9641801094e+00          1
In        3.9901204849e+00  1.1998220327e+01  8.1367945173e+00          0
In        5.6116004393e-03  8.0514558339e+00  1.1963792867e+01          0
In        3.9248892905e+00  8.0251728007e+00  1.1985241389e+01          0
P         5.8401658990e+00  9.9524363820e+00  9.9080291313e+00          1
In        7.9643003815e+00  8.0674351374e+00  1.1866293127e+01          0
P         1.0276037356e+01  1.0004713546e+01  1.0080569776e+01          1
In        1.1986053576e+01  1.1984591099e+01  8.0689096805e+00          0
P         1.4037503628e+01  9.8906818979e+00  9.7235746797e+00          1
P         1.8001373015e+01  9.8737195434e+00  1.0071400879e+01          1
In        1.6055807975e+01  1.1936118593e+01  8.2404459921e+00          0
P         2.1968154699e+01  9.7378925451e+00  1.0007922458e+01          1
In        2.3866943953e+01  8.0816967683e+00  1.1886050550e+01          0
In        2.0125097466e+01  1.1944520410e+01  1.1977698265e+01          0
P         2.5742398538e+01  1.0014273925e+01  9.9837077893e+00          1
P         2.9996348362e+01  9.9035473784e+00  9.8208140698e+00          1
In        3.1904775774e+01  8.1832411305e+00  1.1982119304e+01          0
P         3.3963628308e+01  9.9042991807e+00  1.0048526228e+01          1
In        3.2243002537e+01  1.1957897525e+01  8.0664486852e+00          0
In        3.5927669236e+01  8.0712086637e+00  1.1917979129e+01          0
In        3.6091673165e+01  8.0428933516e+00  8.0157657136e+00          0
P         3.8032469646e+01  9.9921089462e+00  1.0017792427e+01          1
In        3.9869454717e+01  1.1934960493e+01  1.1982277811e+01          0
P         1.8472752279e+00  1.4076698391e+01  1.0041638692e+01          1
P         6.0404435287e+00  1.3939792324e+01  9.8903895121e+00          1
P         1.0204388198e+01  1.3941022678e+01  9.8840637233e+00          1
In        8.0321612432e+00  1.5974359897e+01  8.0131860220e+00          0
P         1.3964082679e+01  1.4023407342e+01  1.0131537890e+01          1
In        1.5962993869e+01  1.5929847723e+01  8.0357163488e+00          0
In        1.5872305812e+01  1.5714080710e+01  1.1892922296e+01          0
P         1.8066044215e+01  1.3939513064e+01  9.9635303639e+00          1
P         2.2105089259e+01  1.4097956123e+01  9.9253097138e+00          1
P         2.6006453555e+01  1.3876677202e+01  9.9792138501e+00          1
In        2.7862950277e+01  1.2005701030e+01  1.1952790211e+01          0
In        2.4063266039e+01  1.5942234337e+01  1.1991822455e+01          0
P         2.9942415397e+01  1.4005011830e+01  9.9930911201e+00          1
P         3.3991858690e+01  1.4004401746e+01  9.8329123592e+00          1
In        3.2164927940e+01  1.5910368283e+01  8.0169088674e+00          0
In        3.5944335582e+01  1.2020329384e+01  1.1799214866e+01          0
In        3.5959187582e+01  1.5991342407e+01  1.1975189090e+01          0
P         3.7799153819e+01  1.4083918137e+01  9.8194955113e+00          1
In        3.9973641467e+01  1.2083426104e+01  8.1322735681e+00          0
In        3.9819420077e+01  1.5999533288e+01  8.1116099297e+00          0
P         2.1304116362e+00  1.8056790408e+01  9.9213119155e+00          1
In        4.0952916156e+00  1.6165278340e+01  8.1177501026e+00          0
P         6.1336654882e+00  1.7964102755e+01  9.8691263329e+00          1
In        4.2926174677e+00  1.6125864424e+01  1.1930859952e+01          0
P         9.8374962029e+00  1.7903280476e+01  9.9851743404e+00          1
In        8.0147870678e+00  1.6067473106e+01  1.1865674226e+01          0
In        1.1972509263e+01  1.6132314582e+01  1.1970162121e+01          0
P         1.4029645814e+01  1.7959009351e+01  9.9218277072e+00          1
In        1.5972392992e+01  1.9928310043e+01  1.1948612962e+01          0
P         1.7959298497e+01  1.8049992157e+01  9.8892343367e+00          1
P         2.1989413211e+01  1.7970527781e+01  9.9405709413e+00          1
In        2.3982738565e+01  1.6040855099e+01  8.0836959942e+00          0
P         2.6089359721e+01  1.7988366417e+01  9.9095612000e+00          1
P         3.0034526819e+01  1.8010197205e+01  1.0138221304e+01          1
P         3.4052181064e+01  1.7988152152e+01  9.9238545942e+00          1
In        3.2036311901e+01  1.6083068130e+01  1.1922741012e+01          0
P         3.8002319196e+01  1.8055844277e+01  9.9980614854e+00          1
P         2.0020316772e+00  2.1963864530e+01  1.0133420645e+01          1
P         6.1067776587e+00  2.2036145199e+01  1.0073018076e+01          1
P         9.9704688067e+00  2.1948457105e+01  1.0032587893e+01          1
In        8.2186517019e+00  2.0115954596e+01  1.1976563360e+01          0
P         1.3935450483e+01  2.2021795007e+01  1.0081519514e+01          1
P         1.7921683844e+01  2.1921003769e+01  9.9834592500e+00          1
P         2.2099641965e+01  2.2008479831e+01  9.9698713971e+00          1
In        2.3755190513e+01  2.0049019460e+01  8.0721778802e+00          0
P         2.5923706591e+01  2.2008570266e+01  1.0177009261e+01          1
In        2.7827364149e+01  2.0060516893e+01  8.0032570963e+00          0
In        2.7977052869e+01  2.0117272578e+01  1.1891945250e+01          0
P         3.0111705999e+01  2.1992150514e+01  1.0132691150e+01          1
In        3.1866751592e+01  2.0037012232e+01  8.0311490601e+00          0
P         3.4016315706e+01  2.1845429436e+01  1.0019967351e+01          1
P         3.7939095366e+01  2.2118594824e+01  9.9883457359e+00          1
In        4.9560777436e-04  2.4160671480e+01  8.2932565780e+00          0
P         1.9875214313e+00  2.6177625028e+01  9.9013816255e+00          1
In        3.9053476707e+00  2.7907130309e+01  8.0672807418e+00          0
In        6.3131531687e-02  2.7944201455e+01  1.1944020417e+01          0
P         5.8253290573e+00  2.6093597239e+01  9.9538845543e+00          1
P         1.0075715785e+01  2.6037074421e+01  9.9349615993e+00          1
In        8.2148689549e+00  2.7939901179e+01  8.1350641746e+00          0
In        1.2000624413e+01  2.4029132411e+01  8.0926665672e+00          0
P         1.3697896695e+01  2.6059374606e+01  9.9750264139e+00          1
In        1.2057007437e+01  2.7878088131e+01  1.1945132127e+01          0
P         1.8012503037e+01  2.6005762864e+01  9.9403632033e+00          1
In        1.9898139684e+01  2.4012762802e+01  8.1753710458e+00          0
In        1.6041287363e+01  2.7967962024e+01  8.0610804404e+00          0
In        1.6029842056e+01  2.7933809155e+01  1.1841805629e+01          0
In        1.9925026514e+01  2.7938622864e+01  1.1993232406e+01          0
P         2.1865400558e+01  2.5973665415e+01  1.0065158533e+01          1
In        2.0013404706e+01  2.4153956926e+01  1.1962590983e+01          0
In        2.4094227519e+01  2.4081745417e+01  8.0126375840e+00          0
P         2.5898030190e+01  2.5962138728e+01  1.0041845154e+01          1
In        2.7776931357e+01  2.7980079485e+01  8.0972902670e+00          0
In        2.7942209048e+01  2.4038639474e+01  1.1973205754e+01          0
In        2.4312769789e+01  2.7763649376e+01  1.1951034344e+01          0
P         3.0201979314e+01  2.5936191463e+01  1.0043579927e+01          1
In        3.2174704399e+01  2.4291188076e+01  8.0858010090e+00          0
P         3.3805154574e+01  2.5911351159e+01  9.7985916129e+00          1
In        3.5929426373e+01  2.4059823810e+01  1.1902564658e+01          0
P         3.7889661406e+01  2.5983470124e+01  9.8866007722e+00          1
P         2.0590908445e+00  3.0151285331e+01  1.0105742252e+01          1
In        5.8109677639e-02  3.1941110952e+01  8.1932767579e+00          0
In        3.9306133832e+00  3.1852360456e+01  1.1768783971e+01          0
P         5.9352658789e+00  3.0043653810e+01  1.0052335213e+01          1
In        4.0100504543e+00  3.1905128943e+01  8.1317931753e+00          0
In        4.1196611432e+00  2.8015507510e+01  1.1937528580e+01          0
P         9.9436327149e+00  3.0200433688e+01  1.0049846701e+01          1
In        1.1779728282e+01  2.8160079651e+01  8.0301794962e+00          0
In        1.1910445653e+01  3.1865195740e+01  8.0464823132e+00          0
P         1.3951582855e+01  2.9970782620e+01  9.9741677120e+00          1
In        1.5742450721e+01  3.1900264415e+01  8.0026521211e+00          0
P         1.7971084417e+01  3.0139172513e+01  1.0099427281e+01          1
In        1.9902463774e+01  2.8099814948e+01  8.0263034373e+00          0
In        1.9941407122e+01  3.1957712344e+01  8.0884281545e+00          0
P         2.2120163174e+01  3.0040252899e+01  9.9602918296e+00          1
In        2.4172962457e+01  2.8003942180e+01  8.1575846007e+00          0
P         2.6139375228e+01  2.9945456390e+01  1.0015618668e+01          1
In        2.4009809458e+01  3.1963922735e+01  8.0177691662e+00          0
In        2.7995668492e+01  3.1941925077e+01  1.1709320390e+01          0
P         2.9941483281e+01  2.9855026371e+01  1.0032244502e+01          1
In        3.1842885421e+01  3.1918927882e+01  8.0997286178e+00          0
P         3.3874650218e+01  3.0210094692e+01  1.0086146288e+01          1
In        3.2012902892e+01  3.1993087139e+01  1.1975774779e+01          0
P         3.8076852313e+01  3.0062908638e+01  9.8533068712e+00          1
P         2.0641511405e+00  3.3907558139e+01  1.0023179331e+01          1
P         5.9070489801e+00  3.4080410840e+01  1.0146506736e+01          1
P         9.9026206210e+00  3.4137739631e+01  1.0072922013e+01          1
In        1.1990592437e+01  3.5967723423e+01  1.1993875521e+01          0
P         1.4089002713e+01  3.3999324470e+01  1.0142270658e+01          1
P         1.7969634041e+01  3.3735276515e+01  1.0002771126e+01          1
P         2.2103132589e+01  3.4094629409e+01  9.9757532089e+00          1
In        2.0054430915e+01  3.5888842921e+01  8.0223324943e+00          0
In        2.3881229766e+01  3.5992312776e+01  8.0619017939e+00          0
In        2.0094515756e+01  3.2134846213e+01  1.1922574898e+01          0
In        2.3761999065e+01  3.5835039868e+01  1.1902586425e+01          0
P         2.5961156392e+01  3.4047439544e+01  1.0023222844e+01          1
In        2.7980721495e+01  3.5873397368e+01  8.1799853303e+00          0
P         3.0140769191e+01  3.4235179471e+01  1.0060092867e+01          1
P         3.4021816093e+01  3.4151546294e+01  9.9812280668e+00          1
P         3.7838780396e+01  3.3912510005e+01  1.0067495451e+01          1
In        3.9969891467e+01  3.2097535383e+01  1.1845761279e+01          0
P         2.1533246726e+00  3.7985649353e+01  1.0167377391e+01          1
In        3.8901890717e+00  3.9898992365e+01  1.1902107811e+01          0
In        4.2557226681e+00  3.6039698027e+01  8.0458969644e+00          0
P         5.9651393680e+00  3.8116113730e+01  9.8904613222e+00          1
P         1.0013796451e+01  3.7996976885e+01  1.0050742812e+01          1
In        8.1483395499e+00  3.6122551136e+01  1.1985020288e+01          0
P         1.3927506953e+01  3.7962859011e+01  1.0080291480e+01          1
In        1.5923389770e+01  3.9868737271e+01  1.1993188608e+01          0
P         1.8052409877e+01  3.7857807614e+01  1.0077498090e+01          1
P         2.1984810566e+01  3.8117618404e+01  9.9605380066e+00          1
In        2.3959931662e+01  3.9990409623e+01  1.1979786774e+01          0
In        2.0046066041e+01  3.6055064700e+01  1.1846432107e+01          0
P         2.6048457409e+01  3.8060180261e+01  1.0178545969e+01          1
In        2.7874827134e+01  3.9914829108e+01  1.1954655043e+01          0
P         3.0098056753e+01  3.8037535586e+01  1.0010827453e+01          1
In        3.1857835036e+01  3.6027935364e+01  1.1967468557e+01          0
P         3.4008044994e+01  3.7963433863e+01  9.9642993713e+00          1
P         3.8063066555e+01  3.8011622968e+01  9.9609564101e+00          1
In        3.9947968271e+01  3.6169108708e+01  8.1194404731e+00          0
P         1.9808389361e+00  2.1055843086e+00  1.3938451360e+01          1
In        3.9806678852e+00  3.9470799766e+00  1.2026321867e+01          0
In        3.9577260661e+00  6.4135315851e-02  1.5923673539e+01          0
P         5.9890565871e+00  1.9815534260e+00  1.3856553445e+01          1
In        4.0487164890e+00  3.9556350121e+00  1.5982875319e+01          0
P         1.0219862591e+01  2.0204275128e+00  1.4026661366e+01          1
In        1.1955011188e+01  3.9458047735e+00  1.2030385048e+01          0
P         1.4061090615e+01  1.9104020890e+00  1.4069052181e+01          1
P         1.7947841709e+01  2.0596254406e+00  1.4077371239e+01          1
P         2.1953682143e+01  1.9653100098e+00  1.4176976953e+01          1
P         2.6031511105e+01  2.0346470456e+00  1.3925027835e+01          1
P         3.0006414708e+01  1.9310643728e+00  1.4041090127e+01          1
In        3.1959440474e+01  8.5765698668e-02  1.5981765988e+01          0
P         3.3933842653e+01  2.1160925617e+00  1.4024322998e+01          1
In        3.5888119542e+01  3.9222779726e+00  1.2071274975e+01          0
In        3.5950660397e+01  7.3609927167e-02  1.5974984053e+01          0
P         3.7893349856e+01  2.2737201664e+00  1.3933751559e+01          1
P         2.1046758914e+00  6.0745396553e+00  1.3999368125e+01          1
P         5.9142767899e+00  6.0085788999e+00  1.4058901128e+01          1
In        7.9884256325e+00  4.0286258204e+00  1.2073557322e+01          0
In        7.8287570210e+00  4.1501472663e+00  1.5896948437e+01          0
P         1.0091623619e+01  6.2300476105e+00  1.3983938762e+01          1
In        1.1958899567e+01  7.8952009681e+00  1.2156114305e+01          0
In        8.0606433246e+00  7.7924556002e+00  1.5898245292e+01          0
P         1.3976264179e+01  6.0486789319e+00  1.3978699730e+01          1
In        1.5968209216e+01  4.1465219947e+00  1.2041801718e+01          0
In        1.5926438242e+01  4.1054573348e+00  1.5993645483e+01          0
P         1.8167326942e+01  6.0063963854e+00  1.3892066508e+01          1
In        1.9799798453e+01  7.9421279987e+00  1.2160376113e+01          0
In        1.9801039557e+01  4.1377996578e+00  1.5940180995e+01          0
In        2.0203248712e+01  4.0714427485e+00  1.2033590839e+01          0
P         2.2153720499e+01  5.8795649733e+00  1.4163325147e+01          1
In        2.3915730812e+01  7.9084106938e+00  1.5999862996e+01          0
P         2.5935731801e+01  5.8616660346e+00  1.4061441752e+01          1
P         3.0184043912e+01  5.9861330849e+00  1.4002104896e+01          1
In        3.2068794458e+01  4.0183301407e+00  1.2009035410e+01          0
P         3.4130996452e+01  5.9653267116e+00  1.3918295373e+01          1
In        3.2126741283e+01  4.0993375387e+00  1.5908276968e+01          0
P         3.7870447718e+01  6.0383252595e+00  1.3932592166e+01          1
In        3.6165777210e+01  4.0099400169e+00  1.5987638468e+01          0
P         2.1049749692e+00  1.0099288896e+01  1.4068090644e+01          1
In        3.9199912633e+00  1.1819585257e+01  1.2024924349e+01          0
In        3.9734100814e+00  1.1942302693e+01  1.5989661557e+01          0
P         5.8285963171e+00  1.0071471159e+01  1.3946329399e+01          1
In        4.0075766819e+00  8.1909250976e+00  1.5890397913e+01          0
In        7.8544180342e+00  1.1895276961e+01  1.5977856995e+01          0
P         1.0038931617e+01  1.0110366753e+01  1.4174088972e+01          1
P         1.4195689951e+01  9.9268107945e+00  1.4089621182e+01          1
In        1.5958074011e+01  8.0291434696e+00  1.5830345262e+01          0
In        1.2092851442e+01  1.1892279766e+01  1.5928302272e+01          0
P         1.7942195465e+01  1.0054958660e+01  1.3981805313e+01          1
In        1.6039532704e+01  1.1928438444e+01  1.2200706137e+01          0
In        1.9944656922e+01  8.1131379772e+00  1.5989885334e+01          0
In        1.6013744443e+01  1.1897950174e+01  1.5912349539e+01          0
P         2.2003368202e+01  1.0048840085e+01  1.4019915263e+01          1
P         2.6030239313e+01  9.9906048653e+00  1.4039691027e+01          1
In        2.4008131742e+01  1.1913656023e+01  1.2081775622e+01          0
In        2.7907587428e+01  8.0189634760e+00  1.5960057543e+01          0
In        2.4051813726e+01  1.1931964931e+01  1.5937624809e+01          0
In        2.8010312247e+01  8.0203040942e+00  1.2060219824e+01          0
P         2.9906110127e+01  1.0050168184e+01  1.4098455044e+01          1
P         3.3970742497e+01  1.0063324278e+01  1.4089079964e+01          1
In        3.5960751562e+01  8.1457500064e+00  1.5897242164e+01          0
In        3.5887452276e+01  1.1944325300e+01  1.5783025970e+01          0
P         3.7983452047e+01  9.8703332994e+00  1.4019250869e+01          1
P         1.9657375585e+00  1.4005622046e+01  1.3985205203e+01          1
P         5.9471259554e+00  1.4014504716e+01  1.4117038426e+01          1
In        7.9421841602e+00  1.2081906546e+01  1.2088013275e+01          0
P         9.9708896523e+00  1.4094733761e+01  1.4016414796e+01          1
In        1.1851643254e+01  1.2080885831e+01  1.2158841046e+01          0
P         1.3830381564e+01  1.3970119729e+01  1.3958225828e+01          1
In        1.2003482058e+01  1.5930419035e+01  1.5955164681e+01          0
P         1.7901980655e+01  1.3761598857e+01  1.3942793902e+01          1
P         2.1945690019e+01  1.4045675696e+01  1.3948723075e+01          1
In        2.0015630149e+01  1.5891674324e+01  1.2026584104e+01          0
P         2.5957977564e+01  1.3977700525e+01  1.4027521204e+01          1
P         3.0029136431e+01  1.4126941477e+01  1.4174823490e+01          1
In        3.1902536132e+01  1.2055905143e+01  1.2097793266e+01          0
In        2.8079452074e+01  1.5989731915e+01  1.2044231687e+01          0
In        3.1915490019e+01  1.2009712329e+01  1.5902132648e+01          0
P         3.3939703609e+01  1.4226336173e+01  1.4197186224e+01          1
P         3.8015776535e+01  1.4059741291e+01  1.3862923849e+01          1
P         1.9225366212e+00  1.7859645675e+01  1.4096625088e+01          1
In        1.3790966235e-01  1.6039765255e+01  1.5994349410e+01          0
P         6.0973273318e+00  1.8040618731e+01  1.3818537303e+01          1
In        4.0858644018e+00  1.9920753992e+01  1.5952121678e+01          0
P         9.9544845647e+00  1.7958616352e+01  1.3966073847e+01          1
P         1.3896073339e+01  1.8078701860e+01  1.3894703477e+01          1
In        1.2035107042e+01  1.9839014279e+01  1.2165040879e+01          0
In        1.5892839356e+01  1.6101686768e+01  1.5977851182e+01          0
P         1.8002152094e+01  1.7992339482e+01  1.3966774039e+01          1
P         2.2003731701e+01  1.7992665701e+01  1.3975052712e+01          1
In        2.0030156611e+01  1.9999988934e+01  1.5979912870e+01          0
P         2.5935108972e+01  1.8020712796e+01  1.4036713815e+01          1
In        2.4053193100e+01  1.6075580757e+01  1.5906420657e+01          0
P         2.9900923266e+01  1.7929435602e+01  1.3858279971e+01          1
P         3.4053206474e+01  1.7970178778e+01  1.3990163923e+01          1
In        3.2002890670e+01  1.9878992376e+01  1.2033715893e+01          0
In        3.5875957551e+01  1.9890558106e+01  1.2063030429e+01          0
In        3.2048249740e+01  1.6066606236e+01  1.5919814470e+01          0
In        3.2024669672e+01  1.9743297184e+01  1.5828125677e+01          0
P         3.7915624223e+01  1.8066471225e+01  1.4061644454e+01          1
In        3.9984421717e+01  1.6000195504e+01  1.2123862330e+01          0
In        3.9870887494e+01  1.9824849466e+01  1.2101449803e+01          0
P         2.1153466047e+00  2.2077605275e+01  1.4014648464e+01          1
In        4.0171976639e-02  2.0185346358e+01  1.5851962149e+01          0
In        4.0752007669e+00  2.0112072843e+01  1.2076143607e+01          0
P         5.8872999038e+00  2.1950619034e+01  1.4050981411e+01          1
In        4.0911898611e+00  2.3927541967e+01  1.2020671517e+01          0
P         1.0035115632e+01  2.1932020202e+01  1.4094810778e+01          1
In        8.0007297282e+00  2.3869558435e+01  1.5828262646e+01          0
In        1.1942731806e+01  2.3913829535e+01  1.5973077101e+01          0
P         1.4098572554e+01  2.2151571287e+01  1.3987627870e+01          1
In        1.2028735191e+01  2.3868434948e+01  1.2035194547e+01          0
In        1.2018164286e+01  2.0202262818e+01  1.5896810962e+01          0
P         1.8164597461e+01  2.1887352797e+01  1.3966785129e+01          1
In        1.9889432300e+01  2.0048048167e+01  1.2082828267e+01          0
In        1.6183445808e+01  2.3982069577e+01  1.2003169747e+01          0
P         2.2005490882e+01  2.2066232232e+01  1.3979782537e+01          1
In        2.3882808107e+01  2.0126958870e+01  1.2012788508e+01          0
In        2.3876184751e+01  2.3897487345e+01  1.5858203118e+01          0
P         2.6021321667e+01  2.2097472300e+01  1.3988452117e+01          1
In        2.4135353459e+01  2.3762885532e+01  1.2086304761e+01          0
In        2.7895668937e+01  2.0054485598e+01  1.5934913672e+01          0
In        2.7843384832e+01  2.3964440281e+01  1.5941181044e+01          0
P         3.0088512637e+01  2.2080719052e+01  1.4140592270e+01          1
In        3.1845585328e+01  2.3986281224e+01  1.2028805710e+01          0
In        3.1829401804e+01  2.3944575925e+01  1.5927031622e+01          0
P         3.4127247741e+01  2.2039501388e+01  1.3841551494e+01          1
P         3.7897275933e+01  2.2029911738e+01  1.4210070735e+01          1
In        3.9814628509e+01  2.3905873741e+01  1.2044584669e+01          0
P         2.0587457530e+00  2.5883845543e+01  1.4044855864e+01          1
In        5.5094538275e-02  2.7982306316e+01  1.5909871269e+01          0
P         6.0707422777e+00  2.6216820021e+01  1.3802981012e+01          1
In        7.9284462056e+00  2.4001234449e+01  1.2159718464e+01          0
P         1.0078308276e+01  2.5922418623e+01  1.4037698464e+01          1
P         1.4132060108e+01  2.6124942384e+01  1.3943738016e+01          1
In        1.5929033711e+01  2.7906812314e+01  1.5945117623e+01          0
P         1.8048331288e+01  2.6007097862e+01  1.3872813837e+01          1
In        1.9988727608e+01  2.4057433427e+01  1.5964972264e+01          0
P         2.2039570144e+01  2.5967513350e+01  1.4048335978e+01          1
In        2.0173158392e+01  2.7840415848e+01  1.5800414787e+01          0
P         2.5841409119e+01  2.5890122032e+01  1.3933693173e+01          1
In        2.4023670445e+01  2.7952674578e+01  1.5911066431e+01          0
P         3.0184518796e+01  2.6067582406e+01  1.4005606920e+01          1
P         3.4092333289e+01  2.5891719872e+01  1.3966338966e+01          1
In        3.2055352562e+01  2.7998741351e+01  1.2131259224e+01          0
In        3.5929711420e+01  2.7880062283e+01  1.2036812100e+01          0
P         3.7844481262e+01  2.6164037939e+01  1.3793284239e+01          1
P         1.9939893937e+00  3.0017946591e+01  1.3882550435e+01          1
P         6.0720971680e+00  3.0134720722e+01  1.3921422818e+01          1
In        7.9523460608e+00  2.8088855952e+01  1.2054060412e+01          0
P         1.0052221359e+01  2.9906052222e+01  1.4023376772e+01          1
In        8.1906726436e+00  3.1975056373e+01  1.2192273067e+01          0
P         1.3950623543e+01  3.0009018573e+01  1.3969210109e+01          1
In        1.2006312017e+01  3.1952621499e+01  1.2080916784e+01          0
In        1.5854399474e+01  3.1922008814e+01  1.5913165998e+01          0
P         1.7985191558e+01  2.9968784853e+01  1.4025829391e+01          1
P         2.2084950863e+01  3.0074089583e+01  1.4095186359e+01          1
P         2.5994351168e+01  2.9985519347e+01  1.3987025362e+01          1
In        2.8000456067e+01  2.8006893627e+01  1.2098323629e+01          0
P         2.9864450543e+01  3.0052145487e+01  1.4122871693e+01          1
P         3.3987803378e+01  2.9921864191e+01  1.4001379747e+01          1
In        3.5959326549e+01  3.1961776976e+01  1.2095938497e+01          0
P         3.7862748383e+01  3.0044705177e+01  1.4029602457e+01          1
P         2.1067832332e+00  3.3980569291e+01  1.3960796487e+01          1
In        3.9464533367e+00  3.5935085762e+01  1.2004844926e+01          0
P         5.9004214832e+00  3.4065531272e+01  1.4055036229e+01          1
In        4.0779072189e+00  3.5961332034e+01  1.5880519922e+01          0
P         1.0047430853e+01  3.4185926142e+01  1.3985648779e+01          1
In        8.0481551596e+00  3.2106006996e+01  1.5913793679e+01          0
In        1.1991108438e+01  3.2138641607e+01  1.5990435219e+01          0
P         1.3992629427e+01  3.4020894930e+01  1.4070196748e+01          1
In        1.6061253921e+01  3.2013162905e+01  1.2141252955e+01          0
P         1.7972893321e+01  3.4003334560e+01  1.4008567797e+01          1
P         2.2061680361e+01  3.4237953778e+01  1.4108994528e+01          1
In        2.3871773476e+01  3.2085909074e+01  1.2009076794e+01          0
In        2.0135846794e+01  3.2017657537e+01  1.5994486419e+01          0
In        2.3949848087e+01  3.2245313537e+01  1.5922787474e+01          0
P         2.5801593635e+01  3.3943852364e+01  1.3986429895e+01          1
In        2.4121742457e+01  3.5843903969e+01  1.5957963195e+01          0
P         2.9956614231e+01  3.4008800077e+01  1.3972908424e+01          1
In        2.8046352990e+01  3.2004470461e+01  1.5930321672e+01          0
In        3.1976754976e+01  3.2022556496e+01  1.5930987052e+01          0
P         3.3735779028e+01  3.3891394956e+01  1.4136008691e+01          1
P         3.8059430618e+01  3.4033639330e+01  1.3921015498e+01          1
In        3.9994351739e+01  3.5917724402e+01  1.2062172920e+01          0
In        3.6111660782e+01  3.5960297731e+01  1.5975330779e+01          0
P         1.9740310997e+00  3.7865927124e+01  1.4177943445e+01          1
In        8.3915964601e-02  3.6115483646e+01  1.5939853106e+01          0
P         5.9626133941e+00  3.7744215159e+01  1.3937967217e+01          1
In        7.9151862697e+00  3.9931549900e+01  1.5984196341e+01          0
P         9.9253858183e+00  3.7893057860e+01  1.3778946273e+01          1
In        1.1850640839e+01  3.6059522156e+01  1.5920428845e+01          0
P         1.3931250629e+01  3.8028035337e+01  1.4092750382e+01          1
In        1.5694451167e+01  3.6131984913e+01  1.2042612746e+01          0
P         1.7997396027e+01  3.7798740474e+01  1.3826402180e+01          1
In        1.9971939616e+01  3.9962388069e+01  1.2136186714e+01          0
In        1.6058568682e+01  3.9928278691e+01  1.5984414845e+01          0
In        1.9967232642e+01  3.6082879910e+01  1.5974896816e+01          0
P         2.2219064870e+01  3.7903414416e+01  1.3951759477e+01          1
In        2.0027974708e+01  3.9901580380e+01  1.5878038049e+01          0
In        2.3907964733e+01  3.9937800782e+01  1.5993787062e+01          0
P         2.5845309495e+01  3.7901261767e+01  1.4199713698e+01          1
In        2.8097057390e+01  3.6055175777e+01  1.2076244932e+01          0
P         2.9948235365e+01  3.8036556083e+01  1.4249049441e+01          1
In        2.8062826652e+01  3.6016797464e+01  1.5924737707e+01          0
P         3.4232600530e+01  3.8018843697e+01  1.4162196389e+01          1
In        3.6067658584e+01  3.6001786771e+01  1.2102519992e+01          0
P         3.7962810128e+01  3.7984753683e+01  1.4167302740e+01          1
P         2.0865373203e+00  2.1035884825e+00  1.8073244519e+01          1
In        3.8445484693e+00  4.5351212401e-02  1.9794826239e+01          0
In        6.0178367671e-02  3.9987637803e+00  1.9941396401e+01          0
P         6.0110223198e+00  1.9065984791e+00  1.8055397356e+01          1
P         9.8643120128e+00  1.9155894400e+00  1.7898615577e+01          1
In        1.2035982857e+01  6.4700692173e-03  1.6082681114e+01          0
P         1.3965250019e+01  2.0596219781e+00  1.8035124782e+01          1
In        1.2120492716e+01  7.3510955420e-03  1.9822278435e+01          0
In        1.5946026822e+01  3.9180608536e+00  1.9877800239e+01          0
P         1.7926763100e+01  1.8893193077e+00  1.8115279050e+01          1
P         2.2101345255e+01  2.0220904124e+00  1.8042022348e+01          1
In        2.0016611830e+01  9.6247123296e-02  1.9832608224e+01          0
P         2.5887006128e+01  1.8235497993e+00  1.8068963302e+01          1
In        2.4030448345e+01  9.7663970968e-02  1.9908458288e+01          0
In        2.8218809657e+01  1.0644700426e-01  1.6118256008e+01          0
P         3.0039698073e+01  1.9933287403e+00  1.8119966703e+01          1
P         3.3984691173e+01  2.0463759014e+00  1.8011944552e+01          1
P         3.7830003553e+01  2.1890797213e+00  1.8051733666e+01          1
In        1.3766488165e-01  4.0629448527e+00  1.6105052368e+01          0
P         2.0879303813e+00  6.1442480844e+00  1.8005241793e+01          1
P         5.9683234424e+00  6.1558784402e+00  1.7932888065e+01          1
P         9.8985690655e+00  6.0562091341e+00  1.8125966906e+01          1
In        1.1953800743e+01  4.1463128934e+00  1.6072775226e+01          0
In        8.0634789269e+00  4.0090242378e+00  1.9895864668e+01          0
In        1.1963579841e+01  7.9606874546e+00  1.9800772130e+01          0
P         1.4139966706e+01  5.9179717110e+00  1.7891167279e+01          1
P         1.7947539699e+01  5.9099431085e+00  1.7766547540e+01          1
P         2.1988854334e+01  6.0147102118e+00  1.7965733460e+01          1
In        2.0049607514e+01  4.0698471625e+00  1.9950124609e+01          0
In        2.3945284248e+01  4.0671953202e+00  1.9969883765e+01          0
In        2.4035984091e+01  4.1977027600e+00  1.6005860327e+01          0
P         2.6049297513e+01  5.9897455547e+00  1.7996434919e+01          1
In        2.8032362108e+01  4.0506719853e+00  1.6011821659e+01          0
P         3.0087592307e+01  5.9731543798e+00  1.8212406734e+01          1
P         3.4169689910e+01  5.9714664898e+00  1.7938410353e+01          1
In        3.2021445833e+01  4.0820647588e+00  1.9848660281e+01          0
P         3.7900277364e+01  6.0046367404e+00  1.8092511060e+01          1
In        3.9995689472e+01  7.9679896225e+00  1.6102670551e+01          0
P         2.0295928018e+00  1.0049779826e+01  1.8066098488e+01          1
P         5.9785255492e+00  9.9894669770e+00  1.7903569514e+01          1
P         9.8434887838e+00  1.0051342657e+01  1.7965386727e+01          1
In        1.1977394207e+01  8.0105053201e+00  1.6159666085e+01          0
In        8.0615475537e+00  8.2049690546e+00  1.9984121775e+01          0
In        8.1877364015e+00  1.1906310791e+01  1.9966829997e+01          0
P         1.4158158992e+01  1.0121590657e+01  1.8003714532e+01          1
In        1.2242511565e+01  1.1965476103e+01  1.9850036154e+01          0
P         1.7795070573e+01  1.0081988961e+01  1.7942742048e+01          1
P         2.2102776054e+01  1.0068194318e+01  1.7955685484e+01          1
In        2.3933430833e+01  1.1634815676e+01  1.9963520430e+01          0
P         2.5967458360e+01  1.0053423700e+01  1.7883992305e+01          1
In        2.4134872467e+01  8.0128350182e+00  1.9840853336e+01          0
P         3.0155056125e+01  1.0123261922e+01  1.7889771192e+01          1
In        3.2009778749e+01  8.0682293746e+00  1.6063339926e+01          0
P         3.3850776020e+01  9.9492446952e+00  1.7878530903e+01          1
In        3.5939826840e+01  8.0818621125e+00  1.9959663083e+01          0
P         3.8116643194e+01  9.9899901105e+00  1.7863695953e+01          1
P         2.0600167344e+00  1.3946190331e+01  1.7940994532e+01          1
In        3.9961657004e+00  1.2077912980e+01  1.9972388078e+01          0
P         6.0495853887e+00  1.3965399195e+01  1.8100739985e+01          1
In        4.0641348267e+00  1.5954432225e+01  1.6030395277e+01          0
In        7.9179505105e+00  1.5993262865e+01  1.6203791868e+01          0
P         1.0074298474e+01  1.4063983271e+01  1.7964889905e+01          1
P         1.3933381418e+01  1.4058061417e+01  1.7840453101e+01          1
In        1.2101335044e+01  1.5903401039e+01  1.9993594602e+01          0
In        1.5881306686e+01  1.5723704757e+01  1.9875385459e+01          0
P         1.8077384310e+01  1.3974287253e+01  1.8032128316e+01          1
In        2.0089494846e+01  1.2204346465e+01  1.6026932866e+01          0
P         2.1853781423e+01  1.4110551455e+01  1.8027110847e+01          1
P         2.6159721216e+01  1.4143611927e+01  1.8013342018e+01          1
In        2.4059834299e+01  1.5959304145e+01  1.9916798146e+01          0
In        2.8050477867e+01  1.2017010650e+01  1.6120690288e+01          0
P         3.0054959602e+01  1.4050579022e+01  1.8126045507e+01          1
In        2.8005872975e+01  1.5936015007e+01  1.6028795856e+01          0
In        2.8018229529e+01  1.2087528766e+01  1.9943672007e+01          0
P         3.4063574234e+01  1.4008375894e+01  1.7962456078e+01          1
In        3.2030977122e+01  1.5965497071e+01  1.9900287069e+01          0
P         3.7918532337e+01  1.4146826104e+01  1.7949271525e+01          1
In        3.9795123029e+01  1.2101657186e+01  1.6046753675e+01          0
In        3.6078835988e+01  1.5901637387e+01  1.6012228176e+01          0
P         2.1961665699e+00  1.7954260588e+01  1.7827269176e+01          1
P         6.0015540347e+00  1.8040497516e+01  1.8077813983e+01          1
In        7.9654892973e+00  1.9896166586e+01  1.6142810468e+01          0
P         9.8419078932e+00  1.7903485032e+01  1.7859857377e+01          1
P         1.3864079923e+01  1.8079379761e+01  1.8068777333e+01          1
P         1.8087629635e+01  1.7883164049e+01  1.8116019236e+01          1
In        1.9967230613e+01  1.6101372663e+01  1.6129991312e+01          0
P         2.2105153226e+01  1.7656917855e+01  1.8041172942e+01          1
P         2.5929822028e+01  1.7831059019e+01  1.8121514352e+01          1
P         2.9931410482e+01  1.8135759781e+01  1.7951348911e+01          1
P         3.4048468471e+01  1.8009814572e+01  1.8142795593e+01          1
In        3.5975588408e+01  1.6041561805e+01  1.9990659990e+01          0
P         3.7969098323e+01  1.7733979258e+01  1.7873217743e+01          1
In        3.6049968195e+01  1.9977402446e+01  1.6174902416e+01          0
P         2.0716852746e+00  2.2049917898e+01  1.8048694339e+01          1
In        3.9278191590e+00  2.0011883770e+01  1.9986949662e+01          0
P         5.9350071824e+00  2.2006978527e+01  1.8004111151e+01          1
In        4.1004818979e+00  2.3967828925e+01  1.6017664717e+01          0
P         1.0115353687e+01  2.1853453489e+01  1.7979225870e+01          1
In        1.1904190730e+01  2.3907378204e+01  1.9985215502e+01          0
P         1.3954309723e+01  2.2074084192e+01  1.8208875972e+01          1
In        1.5744353980e+01  2.0016277951e+01  1.6055736127e+01          0
In        1.5865238687e+01  2.0074042425e+01  1.9949657049e+01          0
P         1.8005260362e+01  2.1917573400e+01  1.7914985291e+01          1
In        1.6020003416e+01  2.3853367674e+01  1.6045127983e+01          0
In        1.6129119523e+01  2.3898930284e+01  1.9934238821e+01          0
P         2.2049276532e+01  2.1848614833e+01  1.7775496852e+01          1
In        2.3989312316e+01  2.0043821721e+01  1.6044186981e+01          0
In        2.0063770531e+01  2.3878363451e+01  1.9947559446e+01          0
In        2.3816339711e+01  2.3990595581e+01  1.9986144315e+01          0
P         2.6027222469e+01  2.2006964101e+01  1.8125787291e+01          1
P         2.9904069212e+01  2.2059208642e+01  1.7941582821e+01          1
P         3.4161796617e+01  2.1907084058e+01  1.8059912361e+01          1
P         3.8195419620e+01  2.2033317935e+01  1.7942640049e+01          1
In        3.6103422164e+01  2.3930495352e+01  1.6093848019e+01          0
P         2.0096948584e+00  2.5982320316e+01  1.7939533754e+01          1
P         5.8584593179e+00  2.5971718880e+01  1.7838133654e+01          1
P         9.9841194750e+00  2.6054884761e+01  1.8008109849e+01          1
In        1.1990261507e+01  2.7812423140e+01  1.6085825020e+01          0
In        8.0233812423e+00  2.4054505103e+01  1.9925663229e+01          0
P         1.4045197331e+01  2.5862834090e+01  1.7897700279e+01          1
P         1.8008913156e+01  2.5954809185e+01  1.8193004878e+01          1
P         2.2009662916e+01  2.5993020798e+01  1.8087082892e+01          1
P         2.6077471881e+01  2.5960503226e+01  1.8175245065e+01          1
In        2.7823641607e+01  2.7984338392e+01  1.9912902241e+01          0
P         3.0032167643e+01  2.6200995974e+01  1.7796537325e+01          1
In        2.8034004624e+01  2.4184350499e+01  1.9949849854e+01          0
P         3.3864619232e+01  2.6018830321e+01  1.7897889240e+01          1
In        3.2087695604e+01  2.7986563298e+01  1.6063492375e+01          0
P         3.7973134526e+01  2.5996581104e+01  1.7947991132e+01          1
In        3.9944691248e+01  2.4039559830e+01  1.6070384445e+01          0
P         1.9916975361e+00  2.9909782711e+01  1.8040264859e+01          1
In        3.3800387958e-03  2.8120231825e+01  1.9852675496e+01          0
In        3.9988321002e+00  2.8023039635e+01  1.9769532993e+01          0
In        1.4412365550e-01  3.1984201222e+01  1.9857507609e+01          0
In        4.1438270673e+00  2.8001420840e+01  1.6067472280e+01          0
P         6.2399951607e+00  3.0012374624e+01  1.7908214607e+01          1
In        4.0173248623e+00  3.1794600095e+01  1.6025295599e+01          0
In        7.9481843722e+00  3.1915619483e+01  1.9916590133e+01          0
In        8.0423770510e+00  2.8003038172e+01  1.6046388685e+01          0
P         9.9765773940e+00  2.9950767740e+01  1.8105615112e+01          1
P         1.3916332504e+01  2.9960493937e+01  1.8001588115e+01          1
In        1.2095473719e+01  2.8012963400e+01  1.9942663625e+01          0
P         1.7853739130e+01  3.0008608902e+01  1.8088749871e+01          1
P         2.2094458011e+01  3.0100522450e+01  1.7865055005e+01          1
In        2.0038378380e+01  2.8155340513e+01  1.9942585291e+01          0
In        2.0137973661e+01  3.1969737499e+01  1.9981239615e+01          0
P         2.5968926241e+01  2.9831960774e+01  1.8016251299e+01          1
In        2.7980619819e+01  2.8214066888e+01  1.6082976971e+01          0
In        2.4027962936e+01  2.8121928090e+01  1.9863457295e+01          0
P         2.9965197676e+01  2.9824477716e+01  1.8034189772e+01          1
P         3.3990804809e+01  2.9993275029e+01  1.8242645695e+01          1
In        3.5916447107e+01  2.8090744846e+01  1.6089475021e+01          0
P         3.7874017410e+01  3.0029095798e+01  1.8096853652e+01          1
In        3.6125614879e+01  3.1944002601e+01  1.6101652540e+01          0
P         1.8159413677e+00  3.3795295388e+01  1.8121639595e+01          1
P         5.9400785191e+00  3.4011507901e+01  1.7842548953e+01          1
P         9.8064567238e+00  3.3807978121e+01  1.7886449656e+01          1
In        8.2722895961e+00  3.5853342991e+01  1.6083074912e+01          0
P         1.3974384779e+01  3.4017534913e+01  1.7967247842e+01          1
P         1.7996310545e+01  3.3891691018e+01  1.7915885017e+01          1
P         2.2094605303e+01  3.3846112583e+01  1.8095145259e+01          1
In        2.3979211569e+01  3.5904918848e+01  1.9870035832e+01          0
P         2.5980735584e+01  3.3848846377e+01  1.7924876055e+01          1
P         2.9961762152e+01  3.3859052281e+01  1.7990967340e+01          1
P         3.3897260267e+01  3.3980170145e+01  1.8116123952e+01          1
P         3.8155949415e+01  3.4079273577e+01  1.8123110018e+01          1
In        3.9841229151e+01  3.2018196509e+01  1.6042229076e+01          0
In        3.6045707975e+01  3.2012544680e+01  1.9730551887e+01          0
In        3.9917946501e+01  3.5893354695e+01  1.9996227618e+01          0
P         2.0930526832e+00  3.8001324792e+01  1.8124751235e+01          1
P         6.1195171886e+00  3.7992476286e+01  1.7978336531e+01          1
P         1.0032717178e+01  3.7887914951e+01  1.7923345381e+01          1
In        8.0795941958e+00  3.6046090199e+01  1.9980529338e+01          0
P         1.3983632896e+01  3.7945595903e+01  1.7925782201e+01          1
In        1.5962387476e+01  3.6121268603e+01  1.6040178458e+01          0
P         1.7950494362e+01  3.8033259001e+01  1.8014096219e+01          1
P         2.1975871720e+01  3.7964960272e+01  1.7935353528e+01          1
P         2.6007762080e+01  3.8079179970e+01  1.7877893161e+01          1
P         2.9925607786e+01  3.8198038760e+01  1.7837992464e+01          1
In        3.1773351335e+01  3.9937122263e+01  1.9964811140e+01          0
In        3.2031310133e+01  3.6016939026e+01  1.6004559351e+01          0
P         3.3796594195e+01  3.8128091213e+01  1.7958194178e+01          1
In        3.2043797230e+01  3.6112357429e+01  1.9905272935e+01          0
P         3.8006068764e+01  3.7938230277e+01  1.7874047387e+01          1
In        3.9971941337e+01  3.9850779927e+01  1.6071761908e+01          0
In        3.9989829726e+01  3.9952398020e+01  1.9908261956e+01          0
In        3.6074705993e+01  3.9961562534e+01  1.9999843681e+01          0
P         2.0422547802e+00  2.0309236899e+00  2.2091538202e+01          1
In        3.9082821079e+00  3.9925228526e+00  2.3924404597e+01          0
P         6.0355701198e+00  2.0909459578e+00  2.1800475443e+01          1
In        7.9924524923e+00  8.6616111203e-02  2.0049221214e+01          0
P         9.9513815112e+00  1.9388916827e+00  2.1994753039e+01          1
P         1.4026980423e+01  2.1620108657e+00  2.1907596832e+01          1
In        1.2013656751e+01  3.9507957377e+00  2.0114673587e+01          0
In        1.6094729624e+01  1.1907292400e-02  2.0057802465e+01          0
P         1.7884380180e+01  1.9070491963e+00  2.2126704101e+01          1
P         2.2067119526e+01  1.9152134125e+00  2.1898884585e+01          1
P         2.6042906840e+01  1.8919232689e+00  2.1988166351e+01          1
In        2.7926566901e+01  1.8042615038e-02  2.0065409145e+01          0
In        2.7841627638e+01  3.8950673796e+00  2.0122407755e+01          0
In        2.7817167559e+01  3.9218688235e+00  2.3978877165e+01          0
P         2.9809830206e+01  1.9467520808e+00  2.1955519719e+01          1
P         3.3793613378e+01  1.9601833720e+00  2.2061284545e+01          1
In        3.5867854289e+01  3.8088310786e+00  2.0148288616e+01          0
In        3.2003177313e+01  3.9341529700e+00  2.3892163255e+01          0
P         3.7910921463e+01  1.9988423314e+00  2.1940203635e+01          1
P         1.8806204794e+00  5.9896737780e+00  2.1883319831e+01          1
In        3.9181478621e+00  4.1475556655e+00  2.0002970450e+01          0
P         6.0815761178e+00  5.9182475510e+00  2.2097593127e+01          1
In        4.1649077498e+00  7.8348617848e+00  2.0015787733e+01          0
In        7.8481868920e+00  4.0748315571e+00  2.3938571987e+01          0
P         1.0022521401e+01  5.9508755050e+00  2.1930438701e+01          1
In        1.1953282530e+01  4.0010203740e+00  2.3902356461e+01          0
P         1.4044772179e+01  5.9159280249e+00  2.1886498980e+01          1
In        1.5968350863e+01  7.9665945210e+00  2.3972230043e+01          0
P         1.7918977944e+01  5.8467223738e+00  2.2167337836e+01          1
In        1.9868298052e+01  4.0580340943e+00  2.3855195137e+01          0
P         2.2019018439e+01  5.9558906713e+00  2.1961129454e+01          1
In        2.0006293438e+01  7.9544593389e+00  2.0059222921e+01          0
P         2.6046867176e+01  6.0898929144e+00  2.1872567257e+01          1
P         3.0054636326e+01  6.2071478560e+00  2.2007006140e+01          1
In        2.8099582050e+01  7.9416899755e+00  2.0073781462e+01          0
In        2.8065187500e+01  7.9556327564e+00  2.3860904354e+01          0
P         3.4037148347e+01  6.1066054539e+00  2.1922847798e+01          1
In        3.2143822461e+01  7.9788979141e+00  2.0053596847e+01          0
P         3.7915134817e+01  5.9245695231e+00  2.1984461910e+01          1
In        3.9870901556e+01  4.0323992750e+00  2.3939133652e+01          0
In        3.9968364021e+01  7.8240580606e+00  2.3906554485e+01          0
In        3.6009797833e+01  7.9654603520e+00  2.3793771563e+01          0
In        2.0136340583e-02  8.0672827411e+00  2.0020984813e+01          0
P         2.0332346280e+00  1.0237897097e+01  2.1901441395e+01          1
In        1.4839791463e-01  1.1849770571e+01  2.0017610977e+01          0
In        8.1116751527e-02  1.1943465323e+01  2.3937002851e+01          0
P         5.7755610350e+00  1.0107456458e+01  2.2086396039e+01          1
In        4.1201243339e+00  8.1116215876e+00  2.3934250911e+01          0
P         1.0017492059e+01  9.8740695629e+00  2.1935944732e+01          1
P         1.4097898024e+01  9.9682598895e+00  2.2054707843e+01          1
In        1.5987455763e+01  8.1225102339e+00  2.0078831348e+01          0
In        1.2062990448e+01  8.1262621329e+00  2.3941529640e+01          0
P         1.7934125456e+01  1.0076973182e+01  2.1997926152e+01          1
In        1.9838579572e+01  1.1945759170e+01  2.0020854028e+01          0
P         2.1959031205e+01  9.9927873201e+00  2.2014846857e+01          1
In        2.3947546939e+01  8.0804857915e+00  2.3968967105e+01          0
P         2.6025129951e+01  9.8197907001e+00  2.2111463301e+01          1
P         2.9819899659e+01  1.0109155113e+01  2.2076239737e+01          1
P         3.4022498296e+01  1.0179660150e+01  2.1924269457e+01          1
In        3.5960638838e+01  1.1938435012e+01  2.3942982314e+01          0
P         3.7941429386e+01  1.0240168029e+01  2.2036208399e+01          1
In        3.6147529674e+01  1.1910783472e+01  2.0043108294e+01          0
P         2.0864422063e+00  1.3964608034e+01  2.2036576943e+01          1
In        6.5279962767e-02  1.5960829503e+01  2.0045018227e+01          0
In        3.8717982672e+00  1.5938468819e+01  2.0058988092e+01          0
In        3.9707358137e+00  1.5812088488e+01  2.3970338010e+01          0
P         5.9521648867e+00  1.4000071558e+01  2.1828309886e+01          1
In        7.9185293964e+00  1.5802170961e+01  2.0106718220e+01          0
P         1.0021728659e+01  1.3980906925e+01  2.1918299467e+01          1
In        8.1010032269e+00  1.5965028128e+01  2.3926998180e+01          0
P         1.3831959262e+01  1.3969840782e+01  2.1832413089e+01          1
In        1.5895076888e+01  1.5907825630e+01  2.3970607358e+01          0
In        1.6013669963e+01  1.2022820413e+01  2.0038008020e+01          0
P         1.7867239848e+01  1.3823161916e+01  2.2238973434e+01          1
P         2.2045004215e+01  1.3951338210e+01  2.1965565325e+01          1
In        2.0066736359e+01  1.5952912714e+01  2.0127469629e+01          0
P         2.6137947285e+01  1.4022820769e+01  2.1806417603e+01          1
In        2.4040626267e+01  1.2090195509e+01  2.3918793913e+01          0
P         2.9953497588e+01  1.4099007200e+01  2.1903021159e+01          1
In        3.1922720972e+01  1.2121138934e+01  2.0141395362e+01          0
In        2.8215929867e+01  1.2080012891e+01  2.3874212622e+01          0
In        3.1925148905e+01  1.5936853036e+01  2.3857489797e+01          0
P         3.4091389380e+01  1.3949366815e+01  2.1879335505e+01          1
P         3.8019633134e+01  1.3932400814e+01  2.1929326056e+01          1
P         2.1034766241e+00  1.8046436876e+01  2.2109704799e+01          1
In        1.1000993058e-01  1.6033563385e+01  2.3842034400e+01          0
P         6.0327853524e+00  1.7880887017e+01  2.2134733420e+01          1
P         1.0007408044e+01  1.7977695447e+01  2.2054539571e+01          1
In        1.1904162161e+01  1.6034339867e+01  2.3975467492e+01          0
In        8.0108245265e+00  1.9930552055e+01  2.3946418811e+01          0
P         1.4015954469e+01  1.7984349240e+01  2.2044193119e+01          1
P         1.8082637234e+01  1.7933967482e+01  2.1906885961e+01          1
In        1.9928571432e+01  1.6017155339e+01  2.3917139179e+01          0
In        1.6106415273e+01  1.9975089266e+01  2.3936620913e+01          0
P         2.1979595875e+01  1.8073846825e+01  2.1813162201e+01          1
P         2.5968213866e+01  1.8171952252e+01  2.2042571204e+01          1
In        2.8193882424e+01  1.6091990169e+01  2.0328753056e+01          0
P         3.0111237759e+01  1.7903019401e+01  2.2085380482e+01          1
In        3.1682748344e+01  1.9907567876e+01  2.0081497551e+01          0
P         3.3905642424e+01  1.8058336867e+01  2.1985747990e+01          1
P         3.7892003847e+01  1.7909916023e+01  2.1981859771e+01          1
P         1.9698109588e+00  2.2030346856e+01  2.1986494930e+01          1
P         6.0245919052e+00  2.1879630443e+01  2.2089827420e+01          1
In        4.1551475536e+00  2.3989877132e+01  2.0018349095e+01          0
In        4.0228049391e+00  2.0011228571e+01  2.3945026926e+01          0
In        4.1272437047e+00  2.3882924776e+01  2.3991515974e+01          0
In        8.0347760251e+00  2.0103646913e+01  2.0071955721e+01          0
P         9.8776195890e+00  2.1965890654e+01  2.1771437540e+01          1
In        1.1931149726e+01  2.0124140142e+01  2.0021630531e+01          0
P         1.4123998719e+01  2.1922298528e+01  2.1938410810e+01          1
P         1.7913125347e+01  2.1967295078e+01  2.2008681007e+01          1
In        1.6014828598e+01  2.3884859798e+01  2.3859109188e+01          0
In        2.0163245359e+01  2.0097943051e+01  2.0067077205e+01          0
P         2.1757529959e+01  2.2016660005e+01  2.2083907166e+01          1
In        2.3942332322e+01  2.0170987145e+01  2.0052830661e+01          0
P         2.6028853351e+01  2.2046977080e+01  2.2122355916e+01          1
In        2.7947010396e+01  2.0023410337e+01  2.0001251671e+01          0
In        2.4024686064e+01  2.0147739831e+01  2.3853698122e+01          0
In        2.7997072241e+01  2.0002473426e+01  2.3932600646e+01          0
P         3.0090691087e+01  2.2063090678e+01  2.2162248135e+01          1
P         3.4008022794e+01  2.2126579787e+01  2.2004953647e+01          1
In        3.5931969379e+01  2.3995722190e+01  2.0127166856e+01          0
In        3.5997960599e+01  2.0028751068e+01  2.3927223197e+01          0
In        3.6059188330e+01  2.0101259748e+01  2.0097078171e+01          0
P         3.8106176710e+01  2.1937657741e+01  2.1963504869e+01          1
In        3.9923072753e+01  2.0061599973e+01  2.0059750268e+01          0
In        3.9941391660e+01  2.3955214332e+01  2.0224796249e+01          0
In        3.9917822428e+01  2.3952277135e+01  2.3960638890e+01          0
P         1.8146995405e+00  2.6097012847e+01  2.2044358254e+01          1
P         5.9050254266e+00  2.5895257225e+01  2.1882457841e+01          1
P         9.8602866295e+00  2.6013178809e+01  2.1940758639e+01          1
In        8.1032891343e+00  2.7926302050e+01  2.0122834450e+01          0
P         1.4022772062e+01  2.5919726564e+01  2.2162047306e+01          1
P         1.8123346879e+01  2.5996919611e+01  2.1921125695e+01          1
In        1.6004111160e+01  2.7781310828e+01  2.0061338501e+01          0
P         2.2008668679e+01  2.5960967570e+01  2.1975198973e+01          1
P         2.5966521815e+01  2.6028810727e+01  2.1945720722e+01          1
In        2.7867750701e+01  2.4091523929e+01  2.3847411093e+01          0
P         3.0072648565e+01  2.5994886567e+01  2.1858729055e+01          1
In        3.2089203292e+01  2.4011597535e+01  2.0040074465e+01          0
P         3.4046102775e+01  2.6027647352e+01  2.1978076533e+01          1
In        3.5981591273e+01  2.4058140625e+01  2.3868664231e+01          0
P         3.8076245828e+01  2.6112650039e+01  2.2089867164e+01          1
In        3.6010863803e+01  2.7942149499e+01  2.3894849044e+01          0
P         2.0022976899e+00  3.0035404537e+01  2.1904253158e+01          1
P         5.8769825889e+00  2.9991196104e+01  2.1935006215e+01          1
In        4.0614350201e+00  3.1966810248e+01  2.3935212888e+01          0
P         1.0008583689e+01  3.0025787360e+01  2.2006954283e+01          1
P         1.3897175248e+01  3.0099018983e+01  2.1802818906e+01          1
In        1.5942603491e+01  3.1991241420e+01  2.0022527058e+01          0
P         1.8011179859e+01  2.9999866581e+01  2.1954340445e+01          1
In        1.9904133414e+01  2.8063693664e+01  2.3977945659e+01          0
P         2.2007903815e+01  3.0017387993e+01  2.2041012072e+01          1
In        2.3995387625e+01  3.1989967824e+01  2.0013339281e+01          0
P         2.5918896362e+01  3.0125829765e+01  2.2245705745e+01          1
In        2.4020328886e+01  3.1926070796e+01  2.3975116703e+01          0
P         3.0001051488e+01  3.0018338564e+01  2.1848830295e+01          1
In        3.1959718462e+01  2.8039652628e+01  2.0017880720e+01          0
In        2.8112835514e+01  3.1966104936e+01  2.0008751841e+01          0
In        2.8017502286e+01  2.8012504255e+01  2.3971887342e+01          0
In        3.1980621057e+01  2.8015133120e+01  2.3951981299e+01          0
P         3.4051112744e+01  3.0102765845e+01  2.1964198491e+01          1
In        3.2039889193e+01  3.1999334594e+01  2.0035661416e+01          0
In        3.5998104496e+01  3.1900314174e+01  2.3916979881e+01          0
In        3.6068376499e+01  2.8076389426e+01  2.0118289824e+01          0
P         3.8014068514e+01  3.0046348729e+01  2.2008122948e+01          1
P         1.9555803612e+00  3.3988293793e+01  2.2150930468e+01          1
In        3.8954297781e+00  3.5893601603e+01  2.0095820941e+01          0
In        9.3887633005e-02  3.2022756966e+01  2.3994769120e+01          0
In        4.0081285665e+00  3.2226828648e+01  2.0200591166e+01          0
P         5.8956197792e+00  3.4159206428e+01  2.1949149416e+01          1
P         9.9455399350e+00  3.3886093766e+01  2.2045421200e+01          1
In        1.1915698048e+01  3.2264949336e+01  2.0098408141e+01          0
P         1.4019428357e+01  3.3740724810e+01  2.2098428212e+01          1
In        1.2105549579e+01  3.5925590058e+01  2.0190437781e+01          0
In        1.2188961050e+01  3.2155600777e+01  2.3814157308e+01          0
P         1.7920884817e+01  3.4060612027e+01  2.2212912302e+01          1
In        1.9844199465e+01  3.5959043298e+01  2.0012143696e+01          0
P         2.1857882122e+01  3.3747154147e+01  2.1876417918e+01          1
P         2.5924658280e+01  3.3816292960e+01  2.1980103951e+01          1
In        2.4213206904e+01  3.5946295709e+01  2.3921076717e+01          0
P         3.0116852262e+01  3.3860985180e+01  2.2044195159e+01          1
In        2.8035792589e+01  3.5861173326e+01  2.0001795238e+01          0
P         3.3976815845e+01  3.4020471773e+01  2.1930145126e+01          1
P         3.8227446863e+01  3.3975166947e+01  2.1905854036e+01          1
In        3.6069519332e+01  3.5973358086e+01  2.0078107136e+01          0
P         2.0657476850e+00  3.8103225189e+01  2.1927769745e+01          1
In        8.1538143894e-02  3.9852739110e+01  2.3889202557e+01          0
P         6.0734360434e+00  3.7893874072e+01  2.1921500411e+01          1
P         1.0027095730e+01  3.7859355194e+01  2.2015932911e+01          1
In        1.1951806122e+01  3.6149819014e+01  2.3882827787e+01          0
P         1.4117480320e+01  3.7992913020e+01  2.2071214062e+01          1
In        1.6072192493e+01  3.6033474385e+01  2.0018744294e+01          0
P         1.7929523526e+01  3.7968893628e+01  2.1964334216e+01          1
In        1.6025466177e+01  3.6097740505e+01  2.3911379596e+01          0
P         2.2064287667e+01  3.7987427427e+01  2.1912375114e+01          1
In        2.0022477395e+01  3.6014597342e+01  2.3945919805e+01          0
P         2.6045618365e+01  3.7852645436e+01  2.1755341558e+01          1
In        2.7980112623e+01  3.6023248958e+01  2.3749170989e+01          0
P         2.9930708148e+01  3.8047826730e+01  2.2199852732e+01          1
P         3.4000798850e+01  3.7974275818e+01  2.1998309518e+01          1
In        3.2033708849e+01  3.9996873089e+01  2.3850262235e+01          0
P         3.7784064382e+01  3.7950552265e+01  2.2034609133e+01          1
In        3.9995318946e+01  3.6079827126e+01  2.3795295538e+01          0
P         2.0075821350e+00  1.9654377458e+00  2.6084616473e+01          1
In        4.0142232822e+00  1.0329018910e-01  2.4044239014e+01          0
P         6.0136397765e+00  1.8637876968e+00  2.6061519855e+01          1
In        8.1593673595e+00  4.5951866431e-02  2.4092558695e+01          0
P         1.0034414881e+01  1.7954476001e+00  2.5862892558e+01          1
In        8.1444372940e+00  3.9243537397e+00  2.7941772622e+01          0
P         1.4108428988e+01  2.0040468950e+00  2.5984729912e+01          1
In        1.5981729246e+01  3.9441164254e+00  2.4222891370e+01          0
In        1.5909098724e+01  8.9776291290e-02  2.7920138353e+01          0
P         1.7883590323e+01  2.1209702360e+00  2.5946977236e+01          1
P         2.1867368315e+01  1.9031959391e+00  2.6125188316e+01          1
P         2.5909168944e+01  2.1051336661e+00  2.6023040187e+01          1
In        2.7964449886e+01  7.9986643007e-02  2.4050727031e+01          0
In        2.7828878605e+01  3.9203995380e+00  2.7850309148e+01          0
P         3.0054413673e+01  1.9071599145e+00  2.5888654197e+01          1
P         3.4051843413e+01  1.8666685675e+00  2.6059366513e+01          1
In        3.5931683507e+01  1.5584195152e-01  2.4243072789e+01          0
P         3.7991367576e+01  2.0943009028e+00  2.5841231753e+01          1
In        3.6054423897e+01  3.9789387697e+00  2.4011418721e+01          0
P         1.8095527839e+00  5.9186888031e+00  2.5923923650e+01          1
In        4.3806268642e-02  7.8400188306e+00  2.7815935362e+01          0
In        3.9700279582e+00  7.8062736844e+00  2.7946460593e+01          0
P         5.9774949234e+00  5.8654581975e+00  2.5958902031e+01          1
In        7.9665879117e+00  7.9928716791e+00  2.7919612528e+01          0
P         1.0016121381e+01  6.0836245116e+00  2.5983705561e+01          1
In        1.1985449933e+01  4.0313363025e+00  2.7954805352e+01          0
P         1.4033780817e+01  6.0199238686e+00  2.5797458693e+01          1
P         1.8097334880e+01  6.1282206408e+00  2.5993682008e+01          1
In        1.6042708106e+01  4.0535456242e+00  2.7934188104e+01          0
P         2.1947088542e+01  6.0356803964e+00  2.5884478317e+01          1
In        2.3985187207e+01  7.9015812214e+00  2.7972857331e+01          0
In        2.4164185291e+01  4.0112769354e+00  2.4095599117e+01          0
P         2.6007703630e+01  6.2179696815e+00  2.5955654967e+01          1
P         2.9880889022e+01  6.0520446107e+00  2.6102240425e+01          1
P         3.4008096415e+01  5.9994155893e+00  2.6069145947e+01          1
In        3.2105676161e+01  7.8757950059e+00  2.4007051348e+01          0
P         3.7958303106e+01  6.2530479535e+00  2.6004500143e+01          1
P         1.9259809897e+00  1.0089161664e+01  2.5966231838e+01          1
P         6.1587308218e+00  1.0125437523e+01  2.5865577056e+01          1
In        7.8451274104e+00  8.0375895493e+00  2.4026795358e+01          0
In        4.0143765822e+00  1.1851219510e+01  2.4027459876e+01          0
P         9.9254492558e+00  9.9772045496e+00  2.6040943849e+01          1
P         1.4056622375e+01  1.0048026589e+01  2.5876586593e+01          1
P         1.8102047040e+01  9.8742144126e+00  2.6011600005e+01          1
In        2.0089915596e+01  8.0689665146e+00  2.4081378148e+01          0
P         2.1890371337e+01  9.8830622720e+00  2.6043299540e+01          1
P         2.6062350224e+01  9.8825178225e+00  2.5841798007e+01          1
In        2.7958474416e+01  8.1309001729e+00  2.7785563771e+01          0
P         3.0130367622e+01  9.8853487818e+00  2.6058319041e+01          1
In        3.1995934979e+01  8.1101387143e+00  2.7767248399e+01          0
P         3.3977430978e+01  1.0148143614e+01  2.6007110825e+01          1
In        3.5930316172e+01  8.0629493205e+00  2.7928828348e+01          0
In        3.2072519262e+01  1.1930092158e+01  2.7936089041e+01          0
P         3.8151373226e+01  9.9611181062e+00  2.6010679791e+01          1
P         1.8965407784e+00  1.3946680464e+01  2.6070393197e+01          1
In        1.4140761118e-01  1.5994314357e+01  2.7930744070e+01          0
P         6.1287624040e+00  1.4008506669e+01  2.6077204973e+01          1
In        7.8800431130e+00  1.2147808744e+01  2.7969570285e+01          0
In        8.0951644058e+00  1.2156479600e+01  2.4113261753e+01          0
P         9.9095584146e+00  1.4006386300e+01  2.6172940747e+01          1
In        1.2072375922e+01  1.2063757355e+01  2.4032323799e+01          0
P         1.3923980564e+01  1.4025775611e+01  2.6088669015e+01          1
In        1.5975951404e+01  1.2173811277e+01  2.4043209953e+01          0
In        1.2062174380e+01  1.2182967120e+01  2.7942242954e+01          0
In        1.5947400581e+01  1.2003577006e+01  2.7970386823e+01          0
P         1.7848841935e+01  1.3862005015e+01  2.6065952630e+01          1
In        1.6238406909e+01  1.5792625247e+01  2.7855827841e+01          0
In        2.0065651268e+01  1.2009554429e+01  2.4022660832e+01          0
P         2.2069317456e+01  1.4005503706e+01  2.6139646768e+01          1
P         2.6080166330e+01  1.3991697977e+01  2.6044806189e+01          1
P         2.9906629432e+01  1.4038555561e+01  2.5933416078e+01          1
In        3.1901343575e+01  1.2220571502e+01  2.4004413469e+01          0
In        2.8152018069e+01  1.5852307858e+01  2.4160087123e+01          0
P         3.4100202276e+01  1.4066723838e+01  2.5895588808e+01          1
P         3.8085601304e+01  1.3966688723e+01  2.5903458711e+01          1
P         2.0038509548e+00  1.8075673881e+01  2.6004726028e+01          1
In        8.3239141352e-02  1.9926469595e+01  2.4085377457e+01          0
In        8.1608323724e-02  1.9896311415e+01  2.7961566514e+01          0
P         5.9682568182e+00  1.8008825730e+01  2.6069943951e+01          1
In        4.0065502088e+00  1.9945977014e+01  2.7888023103e+01          0
P         1.0163638433e+01  1.8006051748e+01  2.5939764069e+01          1
In        1.1957182839e+01  1.9959242853e+01  2.4004733251e+01          0
In        1.1941985052e+01  1.6017327884e+01  2.7966947601e+01          0
P         1.3961324899e+01  1.7872525360e+01  2.6174418261e+01          1
P         1.7993787603e+01  1.7890449204e+01  2.6054205954e+01          1
In        1.9938034282e+01  1.9926089719e+01  2.4100899181e+01          0
P         2.2058991915e+01  1.7986725204e+01  2.6161136889e+01          1
In        2.0013452326e+01  1.9815957466e+01  2.7921847864e+01          0
In        2.4022424946e+01  1.6019313635e+01  2.4045843297e+01          0
P         2.6015226932e+01  1.8099170526e+01  2.5965723042e+01          1
P         3.0097895259e+01  1.7934239227e+01  2.5896822741e+01          1
P         3.3913922157e+01  1.7951670768e+01  2.5927911452e+01          1
In        3.2041862202e+01  1.9951512402e+01  2.4092499524e+01          0
In        3.6006998411e+01  1.6234693810e+01  2.4001681572e+01          0
P         3.8048325962e+01  1.8016663585e+01  2.6007762889e+01          1
In        3.6104494246e+01  1.6054704275e+01  2.7961941296e+01          0
P         2.0400977100e+00  2.1788489113e+01  2.6049387690e+01          1
P         5.8531543928e+00  2.2068810562e+01  2.6282989119e+01          1
P         1.0049061890e+01  2.1927246538e+01  2.6016825076e+01          1
In        8.1686722670e+00  2.3962535159e+01  2.4114433206e+01          0
In        1.1982939335e+01  2.3900858984e+01  2.4227405181e+01          0
P         1.3962721943e+01  2.1984548831e+01  2.5910156054e+01          1
In        1.2082701159e+01  2.0001846440e+01  2.7991830100e+01          0
P         1.8009614085e+01  2.1852065505e+01  2.6041170594e+01          1
In        1.9886078081e+01  2.3885087027e+01  2.4064271624e+01          0
In        1.6011439939e+01  2.3894728639e+01  2.7954911672e+01          0
P         2.2032925981e+01  2.2007824849e+01  2.5937870913e+01          1
P         2.6091586437e+01  2.2047781680e+01  2.6019576305e+01          1
In        2.4158697603e+01  2.0130932474e+01  2.7902538919e+01          0
In        2.7965744193e+01  2.0050152563e+01  2.7989288525e+01          0
P         3.0056193409e+01  2.2041718009e+01  2.6133437878e+01          1
P         3.3925970327e+01  2.2041665686e+01  2.5945634176e+01          1
P         3.7951040396e+01  2.1965468760e+01  2.5813922408e+01          1
P         1.9890678946e+00  2.6167740112e+01  2.6040934263e+01          1
P         6.0915164763e+00  2.6071157146e+01  2.5963137060e+01          1
In        7.9961667619e+00  2.4233571845e+01  2.7964038374e+01          0
P         9.9684437064e+00  2.6025079150e+01  2.6035186355e+01          1
In        8.0023553597e+00  2.7923700363e+01  2.4165294113e+01          0
In        8.0131373715e+00  2.7995358390e+01  2.7912102107e+01          0
P         1.4145975584e+01  2.6034133525e+01  2.5945755614e+01          1
In        1.2042288341e+01  2.4040727699e+01  2.7896487684e+01          0
In        1.2053831766e+01  2.7958259183e+01  2.7954827064e+01          0
P         1.7940210042e+01  2.5858632576e+01  2.5926000680e+01          1
In        1.6002400591e+01  2.7945135913e+01  2.4140903438e+01          0
P         2.1867329363e+01  2.6016517322e+01  2.6006634711e+01          1
In        2.4053649498e+01  2.4108834714e+01  2.4060029381e+01          0
P         2.5932119909e+01  2.5981331415e+01  2.5954121491e+01          1
In        2.4043563185e+01  2.7973142362e+01  2.4211859245e+01          0
In        2.4007325132e+01  2.4063729434e+01  2.7834521018e+01          0
P         3.0080700496e+01  2.5946221061e+01  2.5980982061e+01          1
In        3.2012082513e+01  2.4085285344e+01  2.4058020922e+01          0
P         3.4082895279e+01  2.5914513611e+01  2.6075489619e+01          1
P         3.8177296989e+01  2.6210353654e+01  2.6083456750e+01          1
In        1.2075892415e-01  2.8143669985e+01  2.4018622978e+01          0
P         1.9959136442e+00  3.0043253070e+01  2.5870454638e+01          1
In        3.9680042442e+00  3.1928420944e+01  2.7957642617e+01          0
In        4.2197193468e+00  2.8114419699e+01  2.4078179885e+01          0
P         6.1285508957e+00  3.0184979992e+01  2.5987125088e+01          1
P         9.8498806178e+00  2.9941336569e+01  2.6129493958e+01          1
In        1.1936628529e+01  3.1951627963e+01  2.7824285638e+01          0
In        1.2032837797e+01  2.8159430385e+01  2.4026010574e+01          0
P         1.3996196765e+01  3.0176852686e+01  2.5935305384e+01          1
P         1.8104882327e+01  3.0052597324e+01  2.5720294326e+01          1
In        1.6062043216e+01  3.1749313530e+01  2.4094960004e+01          0
In        1.9875685627e+01  3.1953118733e+01  2.4021616001e+01          0
P         2.1909651153e+01  2.9959574719e+01  2.5915738200e+01          1
In        2.0002254592e+01  3.1907716779e+01  2.7938724530e+01          0
P         2.5787309186e+01  2.9902129398e+01  2.6039012980e+01          1
In        2.4197576429e+01  2.8101100014e+01  2.7969978899e+01          0
In        2.7927339786e+01  3.1970032905e+01  2.7970473078e+01          0
P         3.0083671420e+01  3.0044835453e+01  2.6013461286e+01          1
In        2.8138338189e+01  2.8037039787e+01  2.7979275955e+01          0
In        3.1929572048e+01  2.8202153080e+01  2.7986650103e+01          0
In        3.1970227038e+01  3.1983935396e+01  2.7959818643e+01          0
P         3.3943119506e+01  2.9915197055e+01  2.5989248688e+01          1
P         3.7960088560e+01  2.9996463195e+01  2.6083914267e+01          1
P         1.9747765075e+00  3.4183166404e+01  2.5974147018e+01          1
P         6.2300526939e+00  3.4184535920e+01  2.5995504325e+01          1
In        7.8694662858e+00  3.2052297435e+01  2.4182219430e+01          0
In        4.0456359209e+00  3.5943770209e+01  2.4081392869e+01          0
In        7.7180348497e+00  3.5861271532e+01  2.7964090445e+01          0
P         9.8539570905e+00  3.3925944168e+01  2.5914353362e+01          1
In        8.1368995013e+00  3.5909089888e+01  2.4124461768e+01          0
In        8.0047356465e+00  3.2015316469e+01  2.7958822461e+01          0
P         1.4055579835e+01  3.4065622988e+01  2.5971791147e+01          1
P         1.8137373168e+01  3.3911928410e+01  2.5920092188e+01          1
In        1.9977918004e+01  3.5902186583e+01  2.7757572763e+01          0
P         2.2129175925e+01  3.3933755935e+01  2.5841673390e+01          1
P         2.5938743868e+01  3.4104210696e+01  2.5893070882e+01          1
In        2.4037944286e+01  3.2048898258e+01  2.7944156160e+01          0
In        2.7832433387e+01  3.5939683576e+01  2.7999436043e+01          0
In        2.8009973687e+01  3.2049399519e+01  2.4067983802e+01          0
P         3.0039029407e+01  3.4068805757e+01  2.6031658129e+01          1
In        3.1973547389e+01  3.2129464082e+01  2.4062827801e+01          0
In        3.1912816926e+01  3.5949205044e+01  2.4098757963e+01          0
P         3.4056915470e+01  3.3809277853e+01  2.5948732391e+01          1
In        3.5977606102e+01  3.2014612586e+01  2.7942729419e+01          0
In        3.5957115463e+01  3.5955945653e+01  2.7996557651e+01          0
P         3.8034004392e+01  3.3848730509e+01  2.6187424541e+01          1
P         1.9806599519e+00  3.7855590598e+01  2.5900247805e+01          1
P         5.8951194194e+00  3.7949502212e+01  2.5988715042e+01          1
P         1.0087937901e+01  3.7964276799e+01  2.5977857100e+01          1
P         1.3758699641e+01  3.7916929365e+01  2.6243242831e+01          1
In        1.2212560296e+01  3.9993716366e+01  2.4069608471e+01          0
P         1.8017449588e+01  3.8298556731e+01  2.6076105674e+01          1
In        1.6094650407e+01  3.9832464881e+01  2.4027860077e+01          0
In        1.9988304879e+01  3.9938680663e+01  2.4076940427e+01          0
P         2.1862844486e+01  3.8092183940e+01  2.5889889116e+01          1
In        2.3985409398e+01  3.6054164993e+01  2.7839199810e+01          0
P         2.5871767245e+01  3.7915447463e+01  2.5922675107e+01          1
In        2.4095038270e+01  3.9860697577e+01  2.4078818646e+01          0
P         3.0006183701e+01  3.7967864106e+01  2.5905576659e+01          1
P         3.3940069980e+01  3.8043600272e+01  2.6042536017e+01          1
In        3.6081442583e+01  3.6059879234e+01  2.4006332990e+01          0
P         3.8249242277e+01  3.7926907757e+01  2.6000730149e+01          1
P         2.0501398792e+00  2.2116472251e+00  3.0041402865e+01          1
In        3.9623864779e+00  8.4739459001e-02  2.8046072499e+01          0
In        3.8498316153e+00  3.9207401924e+00  3.1908621720e+01          0
P         5.9231201923e+00  2.0659034853e+00  3.0122306004e+01          1
In        7.9275215301e+00  9.2574734045e-02  2.8063358367e+01          0
P         9.9607560898e+00  1.9887487827e+00  2.9981983006e+01          1
In        1.1981549377e+01  1.9931727247e-02  3.1994767718e+01          0
In        1.2123624030e+01  3.1338423476e-02  2.8083392771e+01          0
P         1.3908013061e+01  2.0105995176e+00  2.9948310130e+01          1
In        1.2040680228e+01  3.9988712699e+00  3.1963868987e+01          0
P         1.8152140999e+01  1.9723200349e+00  2.9979198008e+01          1
P         2.1945587374e+01  1.9592710339e+00  2.9914466048e+01          1
In        2.0002214234e+01  3.9393962585e+00  2.8155091135e+01          0
In        2.3991197841e+01  3.9831897464e+00  3.1908883913e+01          0
P         2.6056269402e+01  1.9917917974e+00  3.0108532418e+01          1
In        2.4156983914e+01  3.8535091702e+00  2.8096578001e+01          0
P         2.9931487671e+01  1.9223194114e+00  2.9958969641e+01          1
P         3.4036912610e+01  2.1820079670e+00  3.0034012524e+01          1
In        3.5910261676e+01  1.2781620360e-01  2.8041985689e+01          0
In        3.5815205485e+01  3.9294808794e+00  3.1997089067e+01          0
P         3.7998628224e+01  1.9111659345e+00  2.9988507426e+01          1
In        3.9896917051e+01  3.8467261954e+00  2.8064000475e+01          0
In        3.9843317547e+01  3.9658891144e+00  3.1946280523e+01          0
P         2.1989554110e+00  5.9744466478e+00  3.0104654683e+01          1
In        4.0515076965e+00  4.0761281927e+00  2.8052871607e+01          0
P         6.0702357962e+00  6.0661653661e+00  3.0015793356e+01          1
In        4.1135650626e+00  7.9977365852e+00  3.1844297996e+01          0
P         9.8809133619e+00  6.0546879418e+00  3.0049043233e+01          1
In        8.0382609251e+00  4.0570098137e+00  3.1838098489e+01          0
P         1.3943620682e+01  5.9198034102e+00  3.0041927034e+01          1
P         1.8037381875e+01  6.0644733277e+00  3.0014557591e+01          1
In        1.6058308505e+01  4.1137466676e+00  3.1910808806e+01          0
P         2.2088348970e+01  6.0317309866e+00  3.0110465753e+01          1
In        2.0143059073e+01  7.9248806380e+00  2.8173043435e+01          0
P         2.5960669196e+01  5.9995069284e+00  3.0055937048e+01          1
P         2.9990279894e+01  6.0491641645e+00  2.9929870516e+01          1
In        3.1928910797e+01  4.0176024118e+00  2.8098084981e+01          0
P         3.3984209421e+01  6.1222903295e+00  3.0040454073e+01          1
In        3.5999401888e+01  4.1449273056e+00  2.8038190003e+01          0
P         3.8089675828e+01  6.0453071555e+00  2.9947468475e+01          1
P         1.9011387175e+00  9.9543050485e+00  3.0093654751e+01          1
P         6.1543235648e+00  9.8576657300e+00  2.9960519339e+01          1
In        7.9798766695e+00  8.0805916202e+00  3.1849546400e+01          0
P         9.8660320272e+00  9.8608184837e+00  3.0028408459e+01          1
In        1.1854402079e+01  1.1817564022e+01  3.1939650762e+01          0
In        1.2132445985e+01  8.0583889810e+00  2.8100165567e+01          0
P         1.4047981444e+01  1.0174224521e+01  3.0047186753e+01          1
In        1.6009459404e+01  8.1010488431e+00  2.8084658822e+01          0
P         1.7770617966e+01  1.0028044320e+01  2.9880426282e+01          1
In        1.9944515361e+01  1.1933995514e+01  2.8020554534e+01          0
In        1.9895723747e+01  8.0440526354e+00  3.1899500667e+01          0
In        1.9894508100e+01  1.1852321194e+01  3.1991658354e+01          0
P         2.1958288592e+01  1.0127363279e+01  3.0124717307e+01          1
P         2.5841741873e+01  9.9263806215e+00  3.0164245638e+01          1
P         2.9963589082e+01  9.9353088201e+00  3.0238056349e+01          1
In        2.8003324010e+01  1.1986571092e+01  2.8060123809e+01          0
In        3.1902033154e+01  8.1162176265e+00  3.1998294247e+01          0
P         3.3999106553e+01  9.9996275780e+00  2.9907769841e+01          1
In        3.5929950187e+01  8.0733866121e+00  3.1749114841e+01          0
P         3.7875182571e+01  9.9197586618e+00  2.9991634425e+01          1
In        3.9975714021e+01  1.1782257095e+01  2.8050520169e+01          0
In        3.6076336333e+01  1.1973320253e+01  2.8028768096e+01          0
P         1.9547933994e+00  1.3929074773e+01  2.9973043684e+01          1
In        3.8518836318e+00  1.2130668759e+01  2.8028530787e+01          0
In        5.3031071632e-02  1.5996734786e+01  3.1999684381e+01          0
P         6.0450998072e+00  1.3838720128e+01  2.9923461762e+01          1
P         1.0090237927e+01  1.3898796532e+01  2.9966358084e+01          1
In        8.1724560984e+00  1.2082887531e+01  3.1991610227e+01          0
P         1.3875618838e+01  1.3995322719e+01  3.0044584287e+01          1
P         1.8010937120e+01  1.3977845167e+01  3.0040945830e+01          1
In        1.9856800282e+01  1.5941906205e+01  2.8030460071e+01          0
P         2.1918048319e+01  1.4140058674e+01  2.9895163559e+01          1
In        2.4108190375e+01  1.2012293552e+01  2.8006317440e+01          0
P         2.5971707193e+01  1.4158767721e+01  2.9962096995e+01          1
In        2.4038580388e+01  1.5928385639e+01  2.8111290321e+01          0
In        2.4056303549e+01  1.5962961262e+01  3.1978181440e+01          0
P         2.9930905760e+01  1.4028247855e+01  2.9865808271e+01          1
In        2.8069322294e+01  1.5919097838e+01  2.8078371029e+01          0
P         3.4030134445e+01  1.3940983548e+01  2.9966385327e+01          1
P         3.7980197251e+01  1.3914441919e+01  3.0192530208e+01          1
P         1.9625430498e+00  1.8159694397e+01  3.0145727227e+01          1
In        3.9095887010e+00  1.6099405203e+01  2.8042744948e+01          0
P         5.8502763148e+00  1.7959079216e+01  2.9865528466e+01          1
In        7.9599961984e+00  1.6030574189e+01  2.8042949990e+01          0
P         9.8929813466e+00  1.8011681348e+01  3.0002976732e+01          1
In        8.0127857702e+00  1.9932064576e+01  2.8041889834e+01          0
In        1.1964903791e+01  1.6024848411e+01  3.1938747171e+01          0
P         1.4046525334e+01  1.8167401582e+01  3.0084337433e+01          1
P         1.7826270664e+01  1.8125968519e+01  3.0017838755e+01          1
In        1.6078556840e+01  1.9873352228e+01  2.8102039530e+01          0
P         2.2024666958e+01  1.7943927062e+01  3.0034523349e+01          1
P         2.5897964733e+01  1.7943419818e+01  2.9955725565e+01          1
P         2.9910598218e+01  1.8112672259e+01  2.9940007286e+01          1
In        3.1886722656e+01  1.6220316376e+01  2.8014096039e+01          0
P         3.4082241054e+01  1.7886673726e+01  3.0080020582e+01          1
In        3.5850333164e+01  1.9962775165e+01  3.1963852902e+01          0
P         3.7898474816e+01  1.7982297846e+01  2.9944083526e+01          1
In        3.6040154131e+01  1.9920291950e+01  2.8009152006e+01          0
In        3.9963209998e+01  1.9929099235e+01  3.1963638091e+01          0
P         2.0665597202e+00  2.2141727341e+01  2.9978761984e+01          1
In        3.9473655181e+00  2.3974101467e+01  2.8033654847e+01          0
P         6.0190744395e+00  2.1917157854e+01  3.0085054120e+01          1
In        4.0840872676e+00  2.0215555448e+01  3.1883360070e+01          0
In        7.9845135923e+00  2.0050074337e+01  3.1984944160e+01          0
P         9.8765216133e+00  2.1965041603e+01  3.0111294736e+01          1
In        1.1983229491e+01  2.3946640090e+01  3.1944778723e+01          0
P         1.3924768188e+01  2.2041011381e+01  3.0048583362e+01          1
In        1.5903666664e+01  2.0039133829e+01  3.1935250545e+01          0
In        1.5818140067e+01  2.3946969936e+01  3.1835133644e+01          0
P         1.7985200809e+01  2.1958196100e+01  2.9905381855e+01          1
P         2.1980117751e+01  2.1941378977e+01  3.0125113646e+01          1
In        2.0110306109e+01  2.0010419026e+01  3.1906550361e+01          0
P         2.6124937990e+01  2.2077903276e+01  2.9864967637e+01          1
In        2.7991722504e+01  2.0104170077e+01  3.1960233635e+01          0
P         3.0102427366e+01  2.2091422250e+01  3.0095453066e+01          1
In        3.1783696414e+01  2.0024181074e+01  2.8170178361e+01          0
P         3.3959157025e+01  2.1930814272e+01  3.0044707549e+01          1
In        3.2005236834e+01  2.3834786726e+01  2.8033252480e+01          0
P         3.7706603685e+01  2.2133323196e+01  3.0088114636e+01          1
In        6.8266841882e-02  2.4066938234e+01  2.8119272583e+01          0
P         1.9606594820e+00  2.6121860804e+01  3.0062418769e+01          1
In        3.8424229833e+00  2.7997948294e+01  2.8036582517e+01          0
P         6.0129723422e+00  2.6150576255e+01  3.0079831110e+01          1
P         1.0030226695e+01  2.5894716517e+01  2.9932128727e+01          1
P         1.3896923376e+01  2.6083759897e+01  3.0073273048e+01          1
P         1.8002487729e+01  2.5983886931e+01  3.0120086866e+01          1
In        1.9943984161e+01  2.4045593695e+01  2.8094827700e+01          0
In        1.9945157825e+01  2.7798761833e+01  3.1924407254e+01          0
P         2.1981964253e+01  2.6069447677e+01  3.0051253887e+01          1
In        2.0041375032e+01  2.7949920944e+01  2.8135757166e+01          0
In        2.3952549780e+01  2.7891482206e+01  3.1998529364e+01          0
P         2.6090129749e+01  2.6007260599e+01  3.0025582189e+01          1
In        2.7935314729e+01  2.4100793857e+01  2.8145762676e+01          0
In        2.4087946899e+01  2.4064286572e+01  3.1960216551e+01          0
P         3.0026698117e+01  2.6092218019e+01  2.9822692260e+01          1
P         3.4115502428e+01  2.5968960173e+01  3.0073479725e+01          1
In        3.6198375836e+01  2.4017427076e+01  2.8083247386e+01          0
P         3.7999664306e+01  2.5975608544e+01  2.9978530774e+01          1
In        1.5472646500e-01  2.8135234357e+01  2.8121244934e+01          0
P         1.9127009736e+00  3.0220494016e+01  2.9930105444e+01          1
P         6.0559024980e+00  2.9941160100e+01  3.0064870012e+01          1
P         1.0062705624e+01  3.0067246075e+01  3.0098397805e+01          1
In        8.0161566172e+00  2.8072628089e+01  3.1970150700e+01          0
In        1.1806767630e+01  3.1977438909e+01  3.1986612034e+01          0
P         1.4089123331e+01  3.0183385020e+01  3.0108735049e+01          1
In        1.2036477344e+01  2.8056041232e+01  3.1923219466e+01          0
In        1.6067787873e+01  2.8081132996e+01  2.8042297577e+01          0
P         1.8022340445e+01  3.0040668869e+01  3.0069045555e+01          1
P         2.1956983578e+01  3.0071926698e+01  2.9862889235e+01          1
In        2.0000306117e+01  3.1859458651e+01  3.1969782675e+01          0
P         2.6121989652e+01  3.0090211646e+01  3.0132186883e+01          1
P         2.9845304360e+01  2.9925291141e+01  3.0129207428e+01          1
In        3.1915235251e+01  3.1947303690e+01  3.1800172219e+01          0
P         3.4064514373e+01  3.0076696695e+01  2.9996944227e+01          1
In        3.5855332377e+01  2.8108124198e+01  2.8200866315e+01          0
P         3.7967920319e+01  3.0013872120e+01  2.9960823224e+01          1
In        3.9903740374e+01  3.1752232174e+01  2.8039313308e+01          0
In        3.9984695704e+01  3.1884655844e+01  3.1980710852e+01          0
P         2.0182950678e+00  3.4053251847e+01  3.0032580784e+01          1
P         5.8888376592e+00  3.3792220706e+01  3.0024857656e+01          1
In        4.0402198221e+00  3.2022748820e+01  3.1912052147e+01          0
In        4.1339336017e+00  3.5876249714e+01  3.1852818680e+01          0
P         1.0052197102e+01  3.3862812005e+01  2.9901936540e+01          1
In        8.0295091659e+00  3.2042010792e+01  3.1908654314e+01          0
P         1.4063448315e+01  3.3848953981e+01  2.9967418080e+01          1
In        1.5962216364e+01  3.2105033372e+01  2.8104764507e+01          0
In        1.5950488151e+01  3.2045351852e+01  3.1975398837e+01          0
In        1.2214278647e+01  3.5911312086e+01  3.1927699826e+01          0
In        1.5775975193e+01  3.5996503189e+01  3.1923869978e+01          0
P         1.7825939554e+01  3.3939295578e+01  2.9891443811e+01          1
In        1.6124717514e+01  3.5911532991e+01  2.8122544025e+01          0
P         2.1960029144e+01  3.4037561944e+01  3.0031967103e+01          1
P         2.5901434258e+01  3.3966990774e+01  3.0177488311e+01          1
P         3.0000266018e+01  3.4063021359e+01  3.0104468271e+01          1
In        3.1895530519e+01  3.5914683769e+01  2.8151610311e+01          0
P         3.3969372946e+01  3.3719224748e+01  3.0005113344e+01          1
In        3.5968529584e+01  3.5990989176e+01  3.1889919601e+01          0
P         3.8049099051e+01  3.3983741633e+01  3.0158482330e+01          1
P         2.0334594630e+00  3.8059405266e+01  2.9964225076e+01          1
In        4.0019546786e+00  3.6206389173e+01  2.8087641412e+01          0
P         6.0765407854e+00  3.7971265457e+01  3.0093747994e+01          1
In        7.9180315980e+00  3.9921872433e+01  3.1940718587e+01          0
P         1.0152113011e+01  3.8030627755e+01  3.0248489196e+01          1
In        1.2000724553e+01  3.6077548394e+01  2.8004673517e+01          0
P         1.4219859028e+01  3.8040470926e+01  3.0069094136e+01          1
In        1.5823507683e+01  3.9791390375e+01  3.1917738104e+01          0
P         1.7855469085e+01  3.8009383475e+01  2.9900895579e+01          1
In        1.9889891257e+01  3.9913875121e+01  2.8098334155e+01          0
P         2.1893782324e+01  3.7857503968e+01  3.0129094549e+01          1
In        2.3920713839e+01  3.9843512137e+01  2.8199886377e+01          0
In        2.0160089073e+01  3.9838804925e+01  3.1911530616e+01          0
In        2.3990706775e+01  3.9960174620e+01  3.1982511585e+01          0
P         2.6079866062e+01  3.7939133303e+01  3.0086623444e+01          1
In        2.4059176529e+01  3.6006561312e+01  3.1999787654e+01          0
P         2.9966370907e+01  3.7969594753e+01  2.9966772500e+01          1
In        2.8169158230e+01  3.9897330647e+01  2.8002587704e+01          0
In        3.1949113560e+01  3.9774528732e+01  2.8091525090e+01          0
P         3.3856875764e+01  3.8041184213e+01  3.0101049702e+01          1
In        3.2089572339e+01  3.6116822293e+01  3.1961155925e+01          0
P         3.7909229950e+01  3.8084706331e+01  2.9808370590e+01          1
In        3.9996985881e+01  3.9964117119e+01  2.8054076465e+01          0
In        3.9848578396e+01  3.6139015800e+01  2.8016653953e+01          0
P         1.8986986503e+00  2.0629532105e+00  3.3948531264e+01          1
P         5.9483831078e+00  1.9492558514e+00  3.4129084936e+01          1
P         1.0002786770e+01  1.9171772158e+00  3.4135672973e+01          1
P         1.3998369447e+01  2.1552351149e+00  3.4043404076e+01          1
P         1.8024510195e+01  2.0431215762e+00  3.3959648699e+01          1
In        1.6055268517e+01  7.7249139779e-02  3.5888678174e+01          0
In        1.9912380969e+01  3.8252242154e+00  3.5801533903e+01          0
P         2.1892390302e+01  2.0424732788e+00  3.3963060836e+01          1
In        2.0123337467e+01  3.9143880631e+00  3.2077796707e+01          0
In        2.3798474326e+01  3.8912726420e+00  3.5980663513e+01          0
P         2.6131578816e+01  1.9255153163e+00  3.3732354764e+01          1
In        2.7945589949e+01  1.2995436623e-01  3.2102135340e+01          0
In        2.7829514703e+01  3.9877616080e+00  3.2086824614e+01          0
P         3.0014759589e+01  2.0354096142e+00  3.4026365852e+01          1
P         3.4033678672e+01  1.8899873200e+00  3.4140962806e+01          1
In        3.5931994684e+01  3.6807449516e-02  3.2056403875e+01          0
In        3.5963609797e+01  6.4181239795e-02  3.5906103571e+01          0
P         3.8154694468e+01  1.8137811114e+00  3.3990522096e+01          1
In        3.9935558716e+01  6.0888213352e-03  3.2136182702e+01          0
P         1.9417158319e+00  6.1667262345e+00  3.3844453693e+01          1
In        1.6483765972e-01  7.9957258568e+00  3.2007204160e+01          0
In        3.8525561865e-02  7.9467013706e+00  3.5893616844e+01          0
P         5.7923737339e+00  5.8780461048e+00  3.4218533044e+01          1
In        4.1989576442e+00  7.9985688246e+00  3.5778839582e+01          0
P         1.0021146701e+01  5.8117461618e+00  3.4060894887e+01          1
In        1.1821546214e+01  4.1443690394e+00  3.5899150432e+01          0
P         1.4084697951e+01  6.0566746516e+00  3.4058308548e+01          1
In        1.5927539916e+01  7.9554774886e+00  3.5897456533e+01          0
P         1.7926649878e+01  6.0840744273e+00  3.3942048030e+01          1
In        1.9954526847e+01  7.8656417039e+00  3.5894243148e+01          0
P         2.1799787775e+01  5.9073143100e+00  3.4093886436e+01          1
P         2.5958341393e+01  6.0893526397e+00  3.4059265826e+01          1
P         3.0106004098e+01  5.8398603399e+00  3.3837815244e+01          1
In        2.8024521732e+01  7.9541203417e+00  3.2031534717e+01          0
In        3.2105673498e+01  4.0306204423e+00  3.2005991093e+01          0
P         3.4146571535e+01  5.9929572625e+00  3.3977214177e+01          1
P         3.7829741490e+01  5.9361291406e+00  3.4168603498e+01          1
In        3.9914313618e+01  4.0770214484e+00  3.5994435391e+01          0
In        3.6033696489e+01  4.0720189177e+00  3.5954059385e+01          0
P         1.9580447345e+00  1.0070285069e+01  3.4185949179e+01          1
P         6.0478161209e+00  1.0009554637e+01  3.4035017614e+01          1
In        7.8281156573e+00  8.1565248147e+00  3.5934192429e+01          0
In        4.0984923940e+00  1.1940342746e+01  3.5883522295e+01          0
P         9.8519364776e+00  1.0097029120e+01  3.3989997092e+01          1
In        1.1833629206e+01  8.1308143069e+00  3.5992263076e+01          0
In        1.2139303411e+01  8.0934423260e+00  3.2240856744e+01          0
P         1.3923569546e+01  9.8979574316e+00  3.4017411080e+01          1
In        1.5824830390e+01  1.1879445158e+01  3.2069588109e+01          0
In        1.2036057182e+01  1.1977761307e+01  3.5982189506e+01          0
In        1.6001859230e+01  8.0590673382e+00  3.2030916918e+01          0
P         1.7936224137e+01  9.7971414251e+00  3.3945263568e+01          1
In        1.6047206949e+01  1.1884142784e+01  3.5946398248e+01          0
P         2.2030543852e+01  1.0036709526e+01  3.3889793991e+01          1
In        2.4022296877e+01  8.1400619385e+00  3.2074779670e+01          0
P         2.6134229760e+01  1.0079959286e+01  3.3871569635e+01          1
In        2.4047439054e+01  1.1883348695e+01  3.2043939448e+01          0
P         3.0149703971e+01  1.0162170226e+01  3.3924761680e+01          1
In        2.8197342235e+01  1.1868140145e+01  3.2126123174e+01          0
P         3.3940324367e+01  1.0023899111e+01  3.3965389621e+01          1
In        3.2121320968e+01  1.1889654325e+01  3.2221792292e+01          0
In        3.5945962919e+01  1.1975307313e+01  3.5934114826e+01          0
P         3.7937727854e+01  1.0135929875e+01  3.3944640038e+01          1
In        3.6055465966e+01  1.1926871053e+01  3.2071727551e+01          0
P         1.9430379004e+00  1.3962408345e+01  3.3975518441e+01          1
In        3.9140309485e+00  1.2124436078e+01  3.2040268582e+01          0
In        3.9444604283e+00  1.5953776014e+01  3.2030049693e+01          0
P         5.8602921712e+00  1.3977320059e+01  3.4079398636e+01          1
P         9.8208496058e+00  1.3904982448e+01  3.4047039733e+01          1
In        8.1455033589e+00  1.5991499118e+01  3.5728267272e+01          0
P         1.3941065376e+01  1.4046914060e+01  3.3972558677e+01          1
P         1.7988960731e+01  1.3799351658e+01  3.3937528379e+01          1
In        1.6111502913e+01  1.5940171945e+01  3.2106986098e+01          0
P         2.1990247740e+01  1.3926862669e+01  3.3907046617e+01          1
In        2.0014598176e+01  1.5900370391e+01  3.2089087520e+01          0
In        2.0134823214e+01  1.2095836858e+01  3.5775622141e+01          0
P         2.6055235692e+01  1.3930134990e+01  3.4043697108e+01          1
P         2.9915399762e+01  1.3877072132e+01  3.3866915070e+01          1
In        2.8266353303e+01  1.2168021714e+01  3.5992755035e+01          0
In        2.8104610481e+01  1.5767989196e+01  3.5906350546e+01          0
P         3.4106382412e+01  1.4116264953e+01  3.4014043983e+01          1
In        3.2027992790e+01  1.2113032418e+01  3.5964523538e+01          0
P         3.8113517913e+01  1.4188487757e+01  3.3961714846e+01          1
In        3.9961539141e+01  1.2100378309e+01  3.2037216685e+01          0
In        3.9941060737e+01  1.5971612191e+01  3.5958206869e+01          0
P         2.0885403900e+00  1.7871925056e+01  3.4179508824e+01          1
P         5.9940061513e+00  1.8076475752e+01  3.4058687617e+01          1
In        7.8147888108e+00  1.6111453350e+01  3.2003747533e+01          0
P         9.7582420598e+00  1.7903156020e+01  3.3933970815e+01          1
In        1.1899073522e+01  1.6068487623e+01  3.5839987717e+01          0
In        8.0833789146e+00  1.9964022403e+01  3.5859599728e+01          0
In        1.1937343353e+01  1.9992238181e+01  3.5834091431e+01          0
P         1.3900869633e+01  1.8032774794e+01  3.4080594886e+01          1
P         1.8143822479e+01  1.7901794562e+01  3.3981799312e+01          1
P         2.1967493658e+01  1.8174623009e+01  3.4018360662e+01          1
In        2.0128446133e+01  1.6060074085e+01  3.5929347160e+01          0
P         2.5990808068e+01  1.8081900530e+01  3.4032605801e+01          1
In        2.4216857716e+01  1.6097313352e+01  3.5989967506e+01          0
In        2.4026071444e+01  1.9871876434e+01  3.5937866221e+01          0
In        2.8019302822e+01  1.6110063930e+01  3.2016840321e+01          0
P         2.9872784088e+01  1.8082381920e+01  3.3910144166e+01          1
In        3.1976710474e+01  1.6060349774e+01  3.2006258741e+01          0
In        3.1973108141e+01  1.9920513862e+01  3.5828424154e+01          0
P         3.3786977772e+01  1.7951101923e+01  3.3990460257e+01          1
In        3.2002370984e+01  1.6027820100e+01  3.5935260704e+01          0
In        3.6030340905e+01  1.6098419853e+01  3.2205739951e+01          0
P         3.7889286029e+01  1.7749004293e+01  3.3941940573e+01          1
P         2.0103579638e+00  2.2068704939e+01  3.3869880204e+01          1
In        2.0568202238e-01  2.3980070987e+01  3.2051509872e+01          0
In        1.1179787648e-01  2.0014055562e+01  3.5883646834e+01          0
In        2.3775785777e-01  2.3892964329e+01  3.5898120529e+01          0
P         5.9158178167e+00  2.1909234255e+01  3.4043812031e+01          1
P         9.9939988314e+00  2.1973399229e+01  3.3891448543e+01          1
In        1.1932987445e+01  2.0048124221e+01  3.2022175884e+01          0
P         1.3991860630e+01  2.1994863556e+01  3.3981230958e+01          1
P         1.8209984676e+01  2.2082038958e+01  3.3965481119e+01          1
In        1.6086095839e+01  2.3984334158e+01  3.5974600045e+01          0
P         2.2081127765e+01  2.2166059326e+01  3.3852584475e+01          1
In        2.4042257179e+01  2.0003331508e+01  3.2000572412e+01          0
P         2.6202678955e+01  2.1951022957e+01  3.4245356707e+01          1
In        2.7997219943e+01  2.3978619075e+01  3.2029626029e+01          0
P         3.0116033453e+01  2.1925836800e+01  3.4101301250e+01          1
In        3.2125507921e+01  2.0045230396e+01  3.2191014751e+01          0
P         3.3951450593e+01  2.1964680540e+01  3.4015020331e+01          1
In        3.5944738309e+01  2.3915108415e+01  3.2033412958e+01          0
In        3.5910417158e+01  2.0032426127e+01  3.5938966565e+01          0
P         3.7938795942e+01  2.2011258928e+01  3.3920925571e+01          1
P         1.9159814717e+00  2.5884929286e+01  3.4028360089e+01          1
In        1.1541694889e-01  2.7869324254e+01  3.2116007852e+01          0
In        3.9359595533e+00  2.4044983824e+01  3.5919776591e+01          0
In        4.0037232411e+00  2.4048837024e+01  3.2114715244e+01          0
P         5.8906709309e+00  2.5930805426e+01  3.3965196559e+01          1
In        7.9579799798e+00  2.7866397594e+01  3.5956677987e+01          0
In        8.0071869506e+00  2.4010052441e+01  3.2241659688e+01          0
P         9.8622911121e+00  2.5919129635e+01  3.3978339061e+01          1
In        1.1978890481e+01  2.7854172480e+01  3.5996205014e+01          0
P         1.3985128129e+01  2.6063821331e+01  3.4159703960e+01          1
In        1.5992682435e+01  2.7919217138e+01  3.2064841792e+01          0
P         1.7850517908e+01  2.6044994790e+01  3.4032552832e+01          1
In        2.0158065982e+01  2.4074358820e+01  3.2005706048e+01          0
P         2.2037572565e+01  2.6209358361e+01  3.3931112871e+01          1
P         2.6089201036e+01  2.5818517527e+01  3.3858319219e+01          1
P         2.9910928144e+01  2.5920088814e+01  3.3926137792e+01          1
In        2.8111001391e+01  2.7873236048e+01  3.2180428000e+01          0
In        3.2015117099e+01  2.4045607319e+01  3.2036248871e+01          0
P         3.3972529692e+01  2.6285805081e+01  3.4129930403e+01          1
In        3.5866950836e+01  2.7810931510e+01  3.2019348660e+01          0
In        3.5949940079e+01  2.7835678406e+01  3.5891008169e+01          0
P         3.8105243506e+01  2.5981302264e+01  3.3996360783e+01          1
P         1.9973318373e+00  3.0041354719e+01  3.3930676760e+01          1
In        3.9674369824e+00  2.8150937338e+01  3.2158250171e+01          0
P         5.8817265159e+00  2.9969987848e+01  3.3979060831e+01          1
P         9.8487189188e+00  3.0013700015e+01  3.3958935075e+01          1
In        8.0691891238e+00  3.1965905965e+01  3.5923214251e+01          0
In        1.1815272659e+01  3.1961433477e+01  3.5931387073e+01          0
P         1.3920212773e+01  3.0040569979e+01  3.3988466021e+01          1
In        1.5956484720e+01  2.8087373392e+01  3.5925890000e+01          0
In        1.5917753277e+01  3.1946142607e+01  3.5942823661e+01          0
P         1.8080189214e+01  3.0099440295e+01  3.3975410251e+01          1
P         2.2069720770e+01  2.9957602612e+01  3.4010085776e+01          1
P         2.5976835037e+01  2.9962319523e+01  3.3811919758e+01          1
In        2.4142110383e+01  3.1949838325e+01  3.2130906053e+01          0
In        2.4061999541e+01  2.8057321075e+01  3.5928535581e+01          0
P         3.0132665288e+01  3.0075666542e+01  3.4041464562e+01          1
In        2.8041765762e+01  3.1951850826e+01  3.2026243274e+01          0
In        2.8113972041e+01  2.8056908073e+01  3.5822479901e+01          0
In        3.1765338048e+01  2.8037945593e+01  3.5973217022e+01          0
In        3.2002070781e+01  2.8047708008e+01  3.2055057545e+01          0
P         3.3929476995e+01  2.9994893869e+01  3.3900563361e+01          1
P         3.7933070011e+01  2.9963591601e+01  3.3915792782e+01          1
P         1.8795358876e+00  3.3944182998e+01  3.3988221658e+01          1
P         6.2244256736e+00  3.3957836753e+01  3.3828482312e+01          1
In        7.8616364085e+00  3.5989948673e+01  3.2181307975e+01          0
P         1.0067736984e+01  3.4114733816e+01  3.3892218247e+01          1
In        1.1945665743e+01  3.5894569543e+01  3.5817192964e+01          0
P         1.3876824234e+01  3.4166556178e+01  3.3974019647e+01          1
P         1.8001357930e+01  3.3894310075e+01  3.3973243108e+01          1
In        1.6010878635e+01  3.5789916914e+01  3.5925460319e+01          0
P         2.1962146114e+01  3.4101584212e+01  3.4104620266e+01          1
In        2.0027390734e+01  3.5989224118e+01  3.2011796149e+01          0
P         2.6088816524e+01  3.4046749384e+01  3.4036752041e+01          1
P         3.0010732884e+01  3.4009165249e+01  3.3977098383e+01          1
In        2.8023999490e+01  3.5890952563e+01  3.2053441303e+01          0
In        3.1850774232e+01  3.2095865663e+01  3.5912798567e+01          0
P         3.4206483525e+01  3.4141312794e+01  3.4087141153e+01          1
In        3.6146816022e+01  3.2029459839e+01  3.2005013994e+01          0
P         3.7847035621e+01  3.3893911221e+01  3.4195657001e+01          1
In        3.9954635310e+01  3.5971307981e+01  3.2075153602e+01          0
P         2.0795801827e+00  3.8133738717e+01  3.4041635662e+01          1
In        3.9449462654e+00  3.9796880552e+01  3.5916528399e+01          0
P         6.0072857054e+00  3.7722435197e+01  3.4062794511e+01          1
In        4.0741621431e+00  3.9985859570e+01  3.2076185849e+01          0
In        7.8700357263e+00  3.9941006799e+01  3.5975857895e+01          0
P         9.9929111099e+00  3.7929423813e+01  3.4093987268e+01          1
P         1.3853592960e+01  3.7974861618e+01  3.3993344946e+01          1
P         1.7974294407e+01  3.8005098549e+01  3.4120307694e+01          1
P         2.1985914207e+01  3.8013097823e+01  3.4039991664e+01          1
In        2.0057279189e+01  3.6022904484e+01  3.5989863729e+01          0
P         2.5998151310e+01  3.8022262657e+01  3.3840752126e+01          1
P         2.9945687955e+01  3.7901638119e+01  3.4115074364e+01          1
In        3.1996507565e+01  3.9858926889e+01  3.5913758375e+01          0
In        3.1972218206e+01  3.6119145973e+01  3.5874684731e+01          0
P         3.4070056897e+01  3.7928714933e+01  3.3932092437e+01          1
In        3.2074206118e+01  3.9976534179e+01  3.2206633404e+01          0
P         3.7890342726e+01  3.7905956656e+01  3.4013172291e+01          1
In        3.6075495559e+01  3.6067654287e+01  3.5918087551e+01          0
P         1.8389940713e+00  2.0311317101e+00  3.8023639876e+01          1
In        3.9433876826e+00  3.8536387366e+00  3.6023014083e+01          0
P         6.0334701987e+00  2.0380085278e+00  3.8069969308e+01          1
P         9.9872478155e+00  2.1298028706e+00  3.7975046505e+01          1
In        1.1942720708e+01  8.5978692632e-02  3.6128332110e+01          0
In        8.0451014904e+00  3.8713470324e+00  3.6008608567e+01          0
P         1.4150532697e+01  1.9761661527e+00  3.7992698720e+01          1
P         1.8059455330e+01  1.9154271730e+00  3.8041197198e+01          1
P         2.2045070975e+01  2.0419305512e+00  3.8052026383e+01          1
In        2.4075040265e+01  9.7222631218e-02  3.6027783980e+01          0
P         2.5922032234e+01  1.9901706534e+00  3.8084757246e+01          1
In        2.7805048764e+01  1.7712329549e-01  3.6078015452e+01          0
P         3.0144654279e+01  2.0089598581e+00  3.7960966325e+01          1
P         3.4071890114e+01  1.9394774635e+00  3.8076225655e+01          1
In        3.2004278708e+01  3.8995647218e+00  3.6098895029e+01          0
P         3.8125295681e+01  1.9082129405e+00  3.8042794307e+01          1
In        3.6101139980e+01  7.4327078575e-02  3.9970355084e+01          0
In        3.9986575568e+01  2.8104839763e-02  3.6001266459e+01          0
P         1.9644979302e+00  6.0185432960e+00  3.7953977763e+01          1
In        3.7903633480e+00  4.0009411855e+00  3.9996846330e+01          0
In        3.9721677583e+00  7.9285050480e+00  3.9894686014e+01          0
P         6.0931578362e+00  5.9771081012e+00  3.8045271256e+01          1
P         1.0020500611e+01  6.0903746240e+00  3.8122971932e+01          1
P         1.3749359002e+01  6.2039654182e+00  3.8072505274e+01          1
In        1.6070089885e+01  4.0302736314e+00  3.6156854832e+01          0
P         1.8066600820e+01  5.8696465360e+00  3.8133571198e+01          1
In        1.6033598523e+01  4.0664374584e+00  3.9993732913e+01          0
P         2.1872829550e+01  6.1404611329e+00  3.7988452914e+01          1
In        2.3941701274e+01  4.0158180698e+00  3.9941881050e+01          0
P         2.5971682568e+01  5.9167471577e+00  3.7948276902e+01          1
In        2.7965856231e+01  4.1895738102e+00  3.9967946671e+01          0
In        2.4057645006e+01  7.8967154706e+00  3.6094469773e+01          0
In        2.7907383504e+01  7.9925103212e+00  3.6170891394e+01          0
In        2.8043275863e+01  4.2289575488e+00  3.6143449494e+01          0
P         2.9950276878e+01  6.0767052642e+00  3.7835422855e+01          1
In        3.1994737209e+01  4.0680950558e+00  3.9998584986e+01          0
In        3.1881727139e+01  7.8115484071e+00  3.9951117552e+01          0
In        3.1984209897e+01  7.8600886773e+00  3.6214235821e+01          0
P         3.4112770769e+01  6.0169338776e+00  3.7835489865e+01          1
In        3.5732009633e+01  4.0238377282e+00  3.9999550169e+01          0
In        3.5892411495e+01  7.9527661322e+00  3.6065066610e+01          0
P         3.7997141528e+01  5.9356005953e+00  3.7881270286e+01          1
P         1.8614932821e+00  9.9555871099e+00  3.7944737415e+01          1
P         5.8696434766e+00  1.0209622779e+01  3.7978096542e+01          1
P         1.0124248352e+01  1.0127394333e+01  3.8030705110e+01          1
In        8.0529245065e+00  1.1963858682e+01  3.9806663809e+01          0
In        8.1960006778e+00  1.1939682270e+01  3.6283662081e+01          0
P         1.3798571889e+01  1.0117550379e+01  3.7948784072e+01          1
In        1.2054509368e+01  1.1817664075e+01  3.9947226292e+01          0
P         1.8034192849e+01  1.0018142468e+01  3.8072806014e+01          1
P         2.1906984095e+01  1.0012012525e+01  3.8027731682e+01          1
In        2.3980984258e+01  8.1199776531e+00  3.9894433443e+01          0
In        2.3963914559e+01  1.1841825089e+01  3.6083527469e+01          0
P         2.6060957195e+01  1.0030066342e+01  3.8000427283e+01          1
In        2.7982022707e+01  8.0739701579e+00  3.9929422025e+01          0
P         3.0016795120e+01  9.8043231050e+00  3.7967109902e+01          1
P         3.4103849273e+01  1.0053314325e+01  3.7966635178e+01          1
In        3.5986184577e+01  8.0189713663e+00  3.9765944164e+01          0
In        3.5912519109e+01  1.1933509749e+01  3.9899676259e+01          0
P         3.7943109701e+01  9.7316381452e+00  3.8104037909e+01          1
In        2.5596810577e-01  1.2305726110e+01  3.6031375941e+01          0
P         1.9706571592e+00  1.4093739302e+01  3.7972158748e+01          1
In        3.9346113859e+00  1.5943185152e+01  3.6001869109e+01          0
P         5.9520809049e+00  1.3974722366e+01  3.8035345161e+01          1
P         1.0046130755e+01  1.3913559797e+01  3.7991991398e+01          1
P         1.4153979095e+01  1.3789379329e+01  3.7897097863e+01          1
In        1.5983138924e+01  1.5922037733e+01  3.9929079760e+01          0
P         1.8023267377e+01  1.4065430772e+01  3.8028005030e+01          1
In        1.6002598589e+01  1.5983854286e+01  3.6076285469e+01          0
P         2.2009947686e+01  1.3895941872e+01  3.8001111276e+01          1
In        2.3867751936e+01  1.2109337639e+01  3.9931874715e+01          0
P         2.5981608272e+01  1.3918409587e+01  3.8017695407e+01          1
In        2.7926784030e+01  1.2046940528e+01  3.9969328510e+01          0
P         2.9814041272e+01  1.3916961578e+01  3.7868021454e+01          1
P         3.4033531733e+01  1.3939061501e+01  3.8143227592e+01          1
In        3.5964934984e+01  1.5969094232e+01  3.6113899312e+01          0
P         3.8142582713e+01  1.3983763918e+01  3.8124348790e+01          1
In        3.6051027508e+01  1.5961697517e+01  3.9925351658e+01          0
P         2.0744172805e+00  1.7998327225e+01  3.7969186202e+01          1
In        3.9271926633e+00  1.6176804582e+01  3.9891778648e+01          0
P         6.0470461795e+00  1.8207963060e+01  3.8181013787e+01          1
P         1.0125893828e+01  1.7795887510e+01  3.7855728699e+01          1
P         1.3953860870e+01  1.8048983605e+01  3.8091959358e+01          1
P         1.7789016151e+01  1.7882747252e+01  3.7995351105e+01          1
P         2.1987916677e+01  1.7865172228e+01  3.8058273480e+01          1
In        2.0022613965e+01  1.6004182280e+01  3.9881034763e+01          0
In        2.0050485076e+01  1.9874052391e+01  3.6007284827e+01          0
P         2.6022450509e+01  1.7908890204e+01  3.8149818598e+01          1
In        2.4005923525e+01  1.6191565634e+01  3.9945946906e+01          0
P         3.0081764316e+01  1.8049034369e+01  3.7973754824e+01          1
P         3.3793509358e+01  1.7966945646e+01  3.8139494090e+01          1
P         3.7831840655e+01  1.8067057990e+01  3.7971606795e+01          1
P         2.0113043168e+00  2.2100741462e+01  3.7910515393e+01          1
In        3.9455997507e+00  2.0000605145e+01  3.9821231126e+01          0
In        4.0838030684e+00  2.0083193281e+01  3.6007359298e+01          0
P         6.0443132016e+00  2.1951217941e+01  3.8025847435e+01          1
In        4.0317926807e+00  2.3996703290e+01  3.9843779437e+01          0
P         1.0065429301e+01  2.2127000641e+01  3.7873074692e+01          1
In        8.0626512467e+00  2.0086334230e+01  3.9957661533e+01          0
P         1.3964742957e+01  2.2003953982e+01  3.8028498118e+01          1
In        1.2183602525e+01  2.0039042514e+01  3.9933850028e+01          0
In        1.6023225927e+01  2.0075056620e+01  3.6080644963e+01          0
P         1.7953046971e+01  2.1993021457e+01  3.7954568298e+01          1
In        1.6013962637e+01  2.0067630088e+01  3.9824450608e+01          0
In        1.9958439697e+01  2.3988950913e+01  3.6005190602e+01          0
P         2.2152047419e+01  2.2077516551e+01  3.8107709641e+01          1
P         2.5922182265e+01  2.1904493662e+01  3.7971723055e+01          1
In        2.7945340345e+01  2.0196631842e+01  3.6066692785e+01          0
In        2.7936524829e+01  2.3981248205e+01  3.6001738137e+01          0
P         2.9954724956e+01  2.2079037770e+01  3.7906740232e+01          1
In        3.1941919262e+01  2.3973773176e+01  3.6011543700e+01          0
P         3.4225839805e+01  2.2139898094e+01  3.7960625192e+01          1
In        3.2060396455e+01  2.0003604747e+01  3.9907829343e+01          0
In        3.5950718787e+01  2.3999324256e+01  3.6082667132e+01          0
P         3.8040577822e+01  2.2121820046e+01  3.7872666056e+01          1
P         2.0073066041e+00  2.5884642931e+01  3.7931104165e+01          1
In        3.8679432986e+00  2.7963534849e+01  3.6137234484e+01          0
P         5.9244534909e+00  2.5803942937e+01  3.8084633970e+01          1
In        7.9999298186e+00  2.4122242721e+01  3.9983709575e+01          0
In        4.0412270614e+00  2.7931005920e+01  3.9937707711e+01          0
In        8.1028897244e+00  2.4023390353e+01  3.6004220273e+01          0
P         1.0004065461e+01  2.5831811301e+01  3.8084470978e+01          1
In        1.1802416568e+01  2.7961647256e+01  3.9916675972e+01          0
In        1.2025089220e+01  2.4025162460e+01  3.6033752524e+01          0
P         1.4026041485e+01  2.5969373356e+01  3.8272653506e+01          1
P         1.8055531499e+01  2.5988503369e+01  3.7940263319e+01          1
In        1.6053750393e+01  2.4032879104e+01  3.9962041386e+01          0
P         2.2064100437e+01  2.6211732618e+01  3.7952116538e+01          1
In        2.0065239473e+01  2.7837744166e+01  3.6014955449e+01          0
In        2.4053862710e+01  2.4103711864e+01  3.6058689040e+01          0
P         2.6093378887e+01  2.6053691223e+01  3.8092174412e+01          1
P         3.0219512991e+01  2.6090838441e+01  3.7868837685e+01          1
P         3.3882214884e+01  2.6055256084e+01  3.7943205190e+01          1
P         3.7929071040e+01  2.5871757281e+01  3.7959993721e+01          1
In        3.9921128616e+01  2.4212549083e+01  3.9905668100e+01          0
In        3.6018256745e+01  2.4130789700e+01  3.9950994962e+01          0
P         1.9423557376e+00  3.0106694175e+01  3.7920292452e+01          1
In        3.9150401727e+00  3.1851782987e+01  3.9923360681e+01          0
In        3.9488956699e+00  3.1914771582e+01  3.6009986005e+01          0
P         6.0133143316e+00  3.0036896998e+01  3.8068006183e+01          1
P         9.8592815996e+00  3.0171408044e+01  3.8036739609e+01          1
In        8.0145790303e+00  2.8011785400e+01  3.9948887179e+01          0
P         1.4209244480e+01  3.0176962237e+01  3.8104432118e+01          1
P         1.7921433303e+01  3.0082367044e+01  3.7901589724e+01          1
P         2.1949110946e+01  2.9992389734e+01  3.8117562417e+01          1
In        2.0168991364e+01  2.8072098653e+01  3.9984361433e+01          0
P         2.6052705377e+01  2.9885434336e+01  3.7936536932e+01          1
In        2.4135367019e+01  2.8203681691e+01  3.9901810366e+01          0
In        2.7970483881e+01  3.1723857476e+01  3.6007542404e+01          0
P         2.9925611439e+01  3.0176971945e+01  3.7894522546e+01          1
P         3.4040367635e+01  2.9776674848e+01  3.7977918766e+01          1
P         3.8056778826e+01  2.9991257311e+01  3.8020255218e+01          1
In        3.9809277887e+01  2.8156117676e+01  3.6074066998e+01          0
In        3.9916105078e+01  3.1992762532e+01  3.6070429852e+01          0
P         1.9051393900e+00  3.3972737604e+01  3.8098633849e+01          1
In        3.9997235960e+00  3.5975184998e+01  3.6200844431e+01          0
P         6.0365096325e+00  3.4034390538e+01  3.8106363662e+01          1
P         1.0088767589e+01  3.4093974761e+01  3.7728520934e+01          1
In        8.0723968177e+00  3.2033957075e+01  3.9999698387e+01          0
In        8.1665452700e+00  3.5983913735e+01  3.6045742023e+01          0
P         1.4116796083e+01  3.3998470472e+01  3.8043819434e+01          1
In        1.5971715926e+01  3.5957146286e+01  3.9982159527e+01          0
P         1.8119647105e+01  3.3909145815e+01  3.8011282486e+01          1
In        1.9952267038e+01  3.2109035730e+01  3.6064622181e+01          0
P         2.1846914462e+01  3.4041029659e+01  3.7888800632e+01          1
In        2.3959125953e+01  3.2079210546e+01  3.6064356319e+01          0
P         2.5982169800e+01  3.4002335811e+01  3.8026762808e+01          1
In        2.7893021962e+01  3.2022907035e+01  3.9923581527e+01          0
In        2.4100223219e+01  3.5903244289e+01  3.6028967348e+01          0
P         2.9974449006e+01  3.4026652094e+01  3.7938891758e+01          1
P         3.3977348352e+01  3.4052392463e+01  3.7802599146e+01          1
In        3.2169125875e+01  3.5945105567e+01  3.9986140816e+01          0
In        3.6100888618e+01  3.2125144394e+01  3.6077095725e+01          0
P         3.8024498020e+01  3.4078200901e+01  3.8057214714e+01          1
In        3.9915459685e+01  3.5984110207e+01  3.6078896312e+01          0
P         2.0742371248e+00  3.7981373420e+01  3.7955827179e+01          1
P         6.0055338413e+00  3.8168336697e+01  3.8055070210e+01          1
P         9.9545928679e+00  3.7913491570e+01  3.7910475651e+01          1
In        8.1755208822e+00  3.9925555432e+01  3.9938613642e+01          0
P         1.3989517977e+01  3.7977202436e+01  3.7963609091e+01          1
P         1.7906927412e+01  3.8001202460e+01  3.7993531826e+01          1
In        1.6094295071e+01  3.9895491135e+01  3.9885668451e+01          0
In        1.9935478072e+01  3.9989989110e+01  3.6134369851e+01          0
P         2.2181171821e+01  3.7956695365e+01  3.7918589982e+01          1
In        2.0122672311e+01  3.9863825088e+01  3.9967606774e+01          0
In        2.3963722142e+01  3.9981549007e+01  3.9966044446e+01          0
P         2.6001037069e+01  3.7974340580e+01  3.8147685395e+01          1
In        2.7901685553e+01  3.6040099134e+01  3.6062786234e+01          0
P         3.0258625398e+01  3.8145605699e+01  3.8202762699e+01          1
In        2.8003358590e+01  3.9956636081e+01  3.9889991334e+01          0
P         3.4121524808e+01  3.7990449353e+01  3.8004971658e+01          1
P         3.7893657722e+01  3.7996185792e+01  3.7957307362e+01          1
