LAMMPS (4 Jul 2026)
  using 1 OpenMP thread(s) per MPI task
# Te-dependent SNAP + fix ttm, local hot spot, FULL Langevin coupling with noise (LAMMPS example parameters),
# uniform initial Te = 1 eV. Stochastic: statistical comparison only. Needs the fix ttm pre_force patch.
variable nsteps index 1000
units           metal
boundary        p p p
lattice         fcc 4.078
Lattice spacing in x,y,z = 4.078 4.078 4.078
region          box block 0 6 0 6 0 6
create_box      1 box
Created orthogonal box = (0 0 0) to (24.468 24.468 24.468)
  1 by 1 by 1 MPI processor grid
create_atoms    1 box
Created 864 atoms
  using lattice units in orthogonal box = (0 0 0) to (24.468 24.468 24.468)
  create_atoms CPU = 0.001 seconds
mass            1 196.9665

#              seed   C_e       rho_e    kappa_e   gamma_p gamma_s v_0     Nx Ny Nz
fix twotemp all ttm 342785 1.2470e-5 0.087614 0.0005365 29.5917 47.5679 58.4613 6  6  6 set 11604.518121550082

pair_style hybrid/overlay zbl 2.0 3.5 snap_ttm
pair_coeff 1 1 zbl 79 79
pair_coeff * * snap_ttm dir.inputs/Au.snapcoeff dir.inputs/Au.snapparam dir.inputs/Au.snapbetas Au f_twotemp
Reading potential file dir.inputs/Au.snapcoeff with DATE: 2017-09-18
SNAPTTM Element = Au, Radius 4.25, Weight 1
SNAPTTM keyword rcutfac 0.5
SNAPTTM keyword twojmax 8
SNAPTTM keyword rfac0 0.99363
SNAPTTM keyword rmin0 0.0
SNAPTTM keyword bzeroflag 0
SNAPTTM keyword quadraticflag 0

compute avgte all reduce ave f_twotemp
thermo          10
thermo_style    custom step temp pe ke etotal press c_avgte f_twotemp[1] f_twotemp[2]
thermo_modify   norm yes format float %.16g

timestep 1.0e-3
neighbor 1.0 bin
neigh_modify once no every 1 delay 0 check yes

# local initial ionic temperature: 3000 K sphere (r = 6 ang) at the box center, 300 K elsewhere
region          hot sphere 12.234 12.234 12.234 6.0 units box
group           hot region hot
55 atoms in group hot
group           cold subtract all hot
809 atoms in group cold
displace_atoms all move 0.1 0.07 0.05 units box   # perfect fcc atoms sit exactly on cell faces: move them off (tie-break)
Displacing atoms ...
velocity cold create 300.0 3423 dist gaussian
velocity hot create 3000.0 4928459 dist gaussian
write_dump all custom init.dump id type x y z vx vy vz modify sort id format float %.17g
WARNING: Calling write_dump before a full system init (src/write_dump.cpp:87)
fix 1 all nve
run             ${nsteps}
run             1000
Neighbor list info ...
  update: every = 1 steps, delay = 0 steps, check = yes
  max neighbors/atom: 2000, page size: 100000
  master list distance cutoff = 5.25
  ghost atom cutoff = 5.25
  binsize = 2.625, bins = 10 10 10
  2 neighbor lists, perpetual/occasional/extra = 2 0 0
  (1) pair zbl, perpetual, half/full from (2)
      attributes: half, newton on
      pair build: halffull/newton
      stencil: none
      bin: none
  (2) pair snap_ttm, perpetual
      attributes: full, newton on, cut 5.25
      pair build: full/bin/atomonly
      stencil: full/bin/3d
      bin: standard
Per MPI rank memory allocation (min/avg/max) = 5.247 | 5.247 | 5.247 Mbytes
   Step          Temp          PotEng         KinEng         TotEng         Press         c_avgte      f_twotemp[1]   f_twotemp[2] 
         0  468.5979142526074 -15959.03518915087 0.06050092897916669 -15958.9746882219 27932.23460960578 11604.51812154991 0.2149555911684468 0
        10  479.659620964516 -15959.01058068882 0.06192911188781872 -15958.94865157693 27103.23356096613 11440.70270017846 0.2114879115925632 0.0004315483839239815
        20  467.2435471351305 -15958.97920263644 0.06032606591150479 -15958.91887657052 28021.78083540006 11253.20701410988 0.2079871710322323 0.000449119599458438
        30  436.9371849915944 -15958.93997804188 0.05641319517970173 -15958.8835648467 30122.04284355313 11027.54910512158 0.2038385980053053 0.0005617512488508301
        40  391.413931374847 -15958.90230840972 0.05053566339776827 -15958.85177274632 33404.99889194597 10822.77244824185 0.200051264582192 0.0004184278794699122
        50  349.7893743707955 -15958.86042982361 0.04516149443436602 -15958.81526832918 36434.05401865319 10580.0513047545 0.1956760629386596 0.0003987124739817814
        60  318.6955126201452 -15958.82593109285 0.04114694920433748 -15958.78478414365 39140.66634662238 10373.74281735814 0.1917643291198562 0.0005225030749018785
        70  311.0665486331394 -15958.79364525228 0.0401619695569171 -15958.75348328273 40549.59182815196 10155.27530908914 0.1878826408544402 0.0005034000311572095
        80  318.1884598073107 -15958.77065457915 0.04108148334270019 -15958.72957309581 41288.52411523293 9986.758069743859 0.1847985415327326 0.0003144602829271689
        90  339.3706033716037 -15958.74502926912 0.04381632130170775 -15958.70121294782 40876.93040501149 9779.782563515168 0.181375254516711 1.00660350438068e-05
       100  360.0894020247185 -15958.72618296752 0.04649133654979106 -15958.67969163097 40625.84116841947 9623.354416739499 0.177870637718227 0.0005668886267383273
       110  377.2810267516705 -15958.70285289897 0.04871095647341094 -15958.6541419425 40036.96594326178 9429.138163669133 0.1748038353181463 0.0001950503169106018
       120  388.2898091866966 -15958.68531468293 0.05013230630018283 -15958.63518237663 40095.00366252529 9287.431240920727 0.1715598154312496 0.0006012688820188352
       130  399.0616065476519 -15958.66105883812 0.05152305885646036 -15958.60953577926 39860.10583353343 9086.008164711766 0.1681565437792255 0.0002113291827534491
       140  412.2522843159143 -15958.63467858831 0.05322611436433124 -15958.58145247394 39603.12132714772 8861.599279129656 0.1639244834867498 0.0003864847463727052
       150  416.914932462121 -15958.6160591067 0.05382811137662787 -15958.56223099532 39773.84316980591 8702.550033492591 0.1612211677619325 0.0001249315908648403
       160  427.5468444583231 -15958.59653011311 0.05520080325815471 -15958.54132930985 39669.3078552658 8529.729652949349 0.1580035304787107 0.0002031477821242894
       170  444.0112952353116 -15958.57729649414 0.05732653736162022 -15958.51996995678 39290.44712369153 8346.853706413769 0.1546562332419624 8.71285486186866e-05
       180  456.809019002817 -15958.56338282831 0.05897885836690631 -15958.50440396994 39111.80906695638 8213.398275980164 0.1518424405218974 0.000352567236656089
       190  470.6117872079332 -15958.5479244043 0.06076094120059871 -15958.4871634631 38700.86224571661 8058.948625291691 0.1491432796330441 0.0002189932506453278
       200  490.2563283803299 -15958.52899721118 0.06329725848701923 -15958.4656999527 38032.48724313267 7865.014241412432 0.1454988601928216 0.0003116292294076807
       210  508.5921484100326 -15958.51167576737 0.06566460608215559 -15958.44601116129 37381.43953908874 7682.097811999484 0.142203108983381 0.0002224703815780448
       220  528.4614235091383 -15958.49442018891 0.06822993888683919 -15958.42619025002 36727.580528584 7491.600048064485 0.1386696147517793 0.0001760357458122446
       230  537.9496233815985 -15958.48374702265 0.0694549654803515 -15958.41429205717 36523.55144489544 7375.097827757641 0.1364352099019218 0.0002929347715836999
       240  554.1137339324075 -15958.46921844823 0.0715419224955266 -15958.39767652574 36049.09600083529 7208.587565999793 0.1335330490365785 0.0001824156335611304
       250  562.6993200802729 -15958.45928587922 0.07265041214513376 -15958.38663546708 35967.30614093223 7095.931450638881 0.1315019553009882 0.0001255233475116287
       260  575.3920344762753 -15958.44801307132 0.07428917533393324 -15958.37372389599 35828.70653966211 6963.696436680888 0.1288001411162938 0.0003961537720661746
       270  584.652539861118 -15958.43830466034 0.07548480416956981 -15958.36281985617 35848.87035373225 6846.145946848661 0.1266074056712665 0.0003458088568554043
       280  588.4744803142687 -15958.43164958912 0.07597825695902038 -15958.35567133216 35982.88389513351 6767.945856755865 0.1253575718424418 0.0001427080203738105
       290  601.5239033159552 -15958.42063475667 0.07766307498793405 -15958.34297168168 35777.26360972458 6627.574297844189 0.1230054803296315 1.379201132104383e-05
       300  612.6798696772016 -15958.41140802755 0.07910342781065681 -15958.33230459974 35776.09440831372 6511.034253545296 0.120754642301573 -6.644100222241282e-05
       310  621.086704634739 -15958.40291526822 0.08018883879784991 -15958.32272642942 35878.62849379163 6399.609573176038 0.1185269442892756 0.0001914689490487375
       320  631.3317111668382 -15958.39089326647 0.08151157710661562 -15958.30938168936 35918.20624454242 6244.159762146317 0.1157617752152914 0.0001445894663704927
       330  629.7221145167676 -15958.38399059751 0.08130376121659753 -15958.30268683629 36362.42856105645 6163.67583841026 0.1142761296582581 0.0001627351062286833
       340  633.7407369104377 -15958.37630150377 0.08182260771727243 -15958.29447889606 36628.13089151007 6065.242046679397 0.1123551654483497 0.0001655727331497827
       350  645.3280403703942 -15958.36814679465 0.08331865070502029 -15958.28482814394 36568.9453649515 5947.016937795752 0.1100008399876363 0.000366939398004798
       360  654.4075644133025 -15958.36254446051 0.08449091294216823 -15958.27805354756 36465.27328876475 5864.13171370941 0.1084698972766346 0.000324635236236949
       370  671.5390988099036 -15958.35474070277 0.08670277457088685 -15958.2680379282 36026.6206739465 5732.628972345428 0.1062932540899498 2.447939403535729e-05
       380  678.4961619286627 -15958.35175569968 0.0876010047354896 -15958.26415469494 35946.12900136277 5686.714177501016 0.1051694296166682 9.047333948291847e-06
       390  687.2673530947258 -15958.34692309599 0.08873345794891686 -15958.25818963804 35748.95208335904 5603.773021185278 0.1035613392797167 0.0003223732729286042
       400  692.8170566783333 -15958.3430254585 0.08944998316628319 -15958.25357547534 35683.75112094422 5542.940083190356 0.1024856852422685 0.0001585793611030971
       410  706.6621381398535 -15958.33587630473 0.0912375290872893 -15958.24463877564 35389.54633719511 5415.737163704093 0.100347837400966 8.433360076632637e-05
       420  720.5803007901633 -15958.32852333858 0.09303451055992332 -15958.23548882802 35132.18525311712 5286.126907058621 0.0982343481974986 -0.0001038352326578092
       430  721.3250364236078 -15958.32717046103 0.09313066377848628 -15958.23403979725 35312.11396410619 5265.710364661396 0.09770530308147203 -9.35064926132821e-06
       440  738.024338482781 -15958.3194772075 0.09528671965742699 -15958.22419048784 35152.38200000692 5120.90847364318 0.09481046001075606 0.0004714993735971618
       450  742.0446496373033 -15958.31576815905 0.09580578419492468 -15958.21996237486 35371.90697119109 5058.625889088033 0.09393204566936965 -0.0001486849816733587
       460  745.0636239403805 -15958.31189303456 0.09619556559246188 -15958.21569746897 35655.03160612522 4995.504033598972 0.09255995311323595 0.0001202426206934623
       470  749.6495858988466 -15958.30582833385 0.09678766160977526 -15958.20904067223 35925.34372370889 4889.653863462263 0.09086596821103345 -5.799127065703997e-05
       480  749.6158406123386 -15958.30225018592 0.0967833047376674 -15958.20546688118 36369.72112803692 4836.965164515426 0.08953909420541001 0.0002026114506930594
       490  758.339158700408 -15958.29726286093 0.09790957703222239 -15958.1993532839 36601.83238082394 4745.695509749927 0.08737655366088931 0.0004819837204823807
       500  772.6109187320093 -15958.2906601319 0.09975221165311436 -15958.19090792024 36554.72090498972 4598.583124844447 0.08523626477152038 -1.362626546919884e-05
       510  777.6776876726472 -15958.28784527817 0.1004063849187387 -15958.18743889325 36795.96940529 4538.215605489155 0.08398170101664869 0.0001560259034835705
       520  783.8101887533078 -15958.28491018051 0.101198155434699 -15958.18371202508 36919.75996384224 4477.75509582122 0.08269443356679691 0.000224404418693812
       530  791.6414697716099 -15958.2805485697 0.1022092563429476 -15958.17833931335 36865.22590460844 4377.896399230453 0.08126824223566315 -0.0001705015446335145
       540  793.0806985098784 -15958.2780428642 0.1023950759401552 -15958.17564778826 36969.9715112133 4328.761062873483 0.08028990732144956 -4.614589629318324e-05
       550  795.7343454542145 -15958.27551705702 0.1027376897257311 -15958.17277936729 37085.56949025397 4275.784052662749 0.07924530869757555 2.46833285866969e-05
       560  807.1663944748191 -15958.27261191561 0.1042136877292329 -15958.16839822788 37027.634314353 4194.62574226363 0.0775896323102082 0.0002071320478324564
       570  811.5859089556069 -15958.27267613656 0.1047842936230961 -15958.16789184293 37131.42623545842 4191.019731295411 0.07715262133308133 0.000387732944234938
       580  818.6571661580651 -15958.27017836487 0.1056972674473217 -15958.16448109742 37183.61784546797 4122.43623218685 0.07640625905788384 -3.07732873261563e-05
       590  818.5386789169218 -15958.26873593178 0.10568196949583 -15958.16305396228 37622.31168887239 4096.013822600296 0.07584373619277686 -6.345458297478305e-05
       600  811.8114697446136 -15958.26624179467 0.1048134158979956 -15958.16142837877 38329.16521576771 4065.503429125389 0.07526995207443393 3.379637441731514e-06
       610  807.9282582352064 -15958.26167212924 0.1043120523694864 -15958.15736007687 39099.19396180753 3987.740566516069 0.07365187578326074 0.0002022849723598584
       620  797.4892750035178 -15958.25767182064 0.1029642696246092 -15958.15470755102 39952.63253967753 3929.83639609384 0.07278384267000078 -1.970292567904811e-05
       630  790.2054929404737 -15958.25445092554 0.1020238566012204 -15958.15242706894 40623.07502266101 3885.106382221041 0.07158358230984692 0.0004327272741139056
       640  792.0761069969269 -15958.25147113481 0.1022653725890955 -15958.14920576222 40748.73620663973 3818.192230331617 0.07064797057982283 8.448963542455416e-05
       650  803.5344865237488 -15958.25017247243 0.10374477013843 -15958.14642770229 40470.68343100393 3759.443675097322 0.06944753963072463 0.0001612885780960724
       660  830.9373312608922 -15958.24833228412 0.1072827661747831 -15958.14104951795 39635.22590407628 3639.849817896571 0.06731026167975369 0.0001532586262898747
       670  846.6994149552463 -15958.24919626287 0.1093178172860899 -15958.13987844558 38981.6157503997 3614.727631065249 0.06676857945697069 0.0001277293515768975
       680  860.7415215654946 -15958.24891280057 0.1111308012301169 -15958.13778199934 38383.04488245454 3563.281889509345 0.06609388995999119 -0.0001633072361202058
       690  867.3811054054503 -15958.24841222061 0.1119880414741181 -15958.13642417914 38102.42649995721 3533.433087176027 0.06533511373638402 0.0001302515787553392
       700  873.0114082861261 -15958.24604258368 0.1127149729101197 -15958.13332761077 38030.99808424294 3457.753529237216 0.06416847500500512 -7.601533233674367e-05
       710  860.1000724078515 -15958.2457202061 0.111047983384049 -15958.13467222272 38518.94382721665 3491.691882154618 0.06448670104763086 0.0001994326795662745
       720  857.5576013919878 -15958.24322044554 0.1107197235824498 -15958.13250072195 38847.75813416199 3434.906884353772 0.06361596683473712 0.0001366617611469047
       730  857.3563173873947 -15958.24110274655 0.1106937356962554 -15958.13040901085 39145.92106450959 3382.828855633802 0.06271036591248691 0.0001492812242050167
       740  862.8845846997043 -15958.23982523217 0.1114074932650942 -15958.1284177389 39212.34331522511 3332.393447428503 0.06184798743311352 2.689913842485383e-05
       750  866.9613957049918 -15958.2399250042 0.1119338525287409 -15958.12799115167 39165.21919006162 3324.380082675747 0.0617086110399924 -0.0001881261510533623
       760  874.9581545104397 -15958.23962126499 0.112966318363173 -15958.12665494663 39007.63975961685 3291.771633551232 0.06081096522541928 0.0001749132979538923
       770  881.8087851581837 -15958.23868176603 0.113850806974145 -15958.12483095905 38896.6882939916 3250.230561109071 0.05989710258301445 0.0002468201462051091
       780  894.6033223758709 -15958.23593237308 0.1155027165622686 -15958.12042965652 38803.13449177395 3124.079798416551 0.05789510578535257 2.80118717573676e-05
       790  894.3570709497144 -15958.23444181331 0.1154709229080679 -15958.1189708904 39117.39519954287 3082.60700165808 0.05702182835033298 0.0002350972303540788
       800  897.9249761659667 -15958.23218052029 0.1159315770713224 -15958.11624894322 39485.39349340279 3005.547177242944 0.0558452207361383 -9.390895786717276e-05
       810  895.7585272319471 -15958.23094487357 0.1156518656831419 -15958.11529300788 40000.73282224713 2983.595325513517 0.05510882589662941 0.0001628171463061696
       820  889.0699293089295 -15958.23017807276 0.1147882972044897 -15958.11538977556 40457.98403274152 2979.971144339518 0.05523389863968405 3.864515197632919e-05
       830  891.2092893028544 -15958.22882236549 0.1150645111250313 -15958.11375785437 40674.79826716684 2934.229823625291 0.05442940002135578 -7.432598641917722e-05
       840  893.0930902705234 -15958.22806106909 0.1153077296821126 -15958.1127533394 40721.84590609395 2905.162184443387 0.05387850441267071 -3.058949155152058e-07
       850  896.1748384208857 -15958.22774079944 0.1157056158448672 -15958.11203518359 40695.03946946727 2889.037169445066 0.05333756220278837 0.00010910727050641
       860  902.9167482464799 -15958.22687994496 0.1165760674519615 -15958.11030387751 40608.20066877157 2832.314975834307 0.05237044719578905 5.945799013044813e-05
       870  908.4432969664823 -15958.22633969877 0.1172896031324223 -15958.10905009564 40549.27743214214 2790.826011243976 0.05166243814169972 2.384176103025867e-06
       880  910.7700985294437 -15958.22616390761 0.1175900177348515 -15958.10857388987 40521.6828767412 2769.368201147661 0.05151915206731116 -0.0001665980672169883
       890  911.3708291311511 -15958.22608138977 0.1176675783862417 -15958.10841381138 40586.44726707485 2763.981724769488 0.05154495819551409 -0.0003206110189413668
       900  911.9408511014198 -15958.22554440625 0.1177411742296948 -15958.10780323202 40826.60896900358 2750.647235306704 0.0508305358935658 0.0001679432631189581
       910  911.7881979531237 -15958.22409867801 0.1177214650995374 -15958.10637721291 41157.03999803155 2705.140221881444 0.04995553183611609 0.0001275376176347797
       920  905.5049330266902 -15958.22226329762 0.1169102293822855 -15958.10535306824 41591.23229428672 2664.486798750334 0.04955115933173956 -8.746840228838506e-05
       930  900.294251049601 -15958.22093256638 0.1162374754270493 -15958.10469509095 41981.56315641448 2640.829076422798 0.04902755049784634 -1.999978902156958e-05
       940  901.5287439046966 -15958.21987798343 0.1163968614641607 -15958.10348112197 42124.62351155229 2595.66750291301 0.04820992053206929 4.164285406329623e-06
       950  903.2681827872133 -15958.22015241629 0.1166214413547106 -15958.10353097493 42059.38724319411 2601.47184144826 0.04807898327072002 0.0001765484575667556
       960  914.888447834036 -15958.22100088513 0.1181217400306836 -15958.1028791451 41568.78089091607 2580.814891766684 0.04767045309742155 0.0002231951659804519
       970  929.5787938099943 -15958.22270642331 0.1200184185081976 -15958.1026880048 40881.42513262835 2573.709716908518 0.04753821791735064 7.153695913394966e-05
       980  948.759974771604 -15958.22385743759 0.1224949111083531 -15958.10136252648 40085.72005326341 2517.853508546134 0.04676883345693835 3.566321343575722e-05
       990  960.2148633194256 -15958.22491070513 0.1239738579355095 -15958.1009368472 39661.72329962227 2502.991657012345 0.04633657309005462 0.000251600738789711
      1000  968.3388852404095 -15958.22489734626 0.1250227547793006 -15958.09987459148 39632.52474256905 2462.93509269635 0.04570230596311825 5.903487925436655e-05
Loop time of 141.249 on 1 procs for 1000 steps with 864 atoms

Performance: 0.612 ns/day, 39.236 hours/ns, 7.080 timesteps/s, 6.117 katom-step/s
99.2% CPU use with 1 MPI tasks x 1 OpenMP threads

MPI task timing breakdown:
Section |  min time  |  avg time  |  max time  |%varavg| %total
---------------------------------------------------------------
Pair    | 141.13     | 141.13     | 141.13     |   0.0 | 99.91
Neigh   | 0.029265   | 0.029265   | 0.029265   |   0.0 |  0.02
Comm    | 0.0070298  | 0.0070298  | 0.0070298  |   0.0 |  0.00
Output  | 0.0045423  | 0.0045423  | 0.0045423  |   0.0 |  0.00
Modify  | 0.075787   | 0.075787   | 0.075787   |   0.0 |  0.05
Other   |            | 0.004325   |            |       |  0.00

Nlocal:            864 ave         864 max         864 min
Histogram: 1 0 0 0 0 0 0 0 0 0
Nghost:           1593 ave        1593 max        1593 min
Histogram: 1 0 0 0 0 0 0 0 0 0
Neighs:          16825 ave       16825 max       16825 min
Histogram: 1 0 0 0 0 0 0 0 0 0
FullNghs:        33650 ave       33650 max       33650 min
Histogram: 1 0 0 0 0 0 0 0 0 0

Total # of neighbors = 33650
Ave neighs/atom = 38.946759
Neighbor list builds = 14
Dangerous builds = 0
Total wall time: 0:02:21
