24
Lattice="4.69519042969 0.0 0.0 0.0 3.31999993324 0.0 0.0 0.0 53.1199989319" Properties=species:S:1:pos:R:3:forces:R:3 energy=-279.124427 stress="-3756.4 -2886.7400000000002 -901.71 -2886.7400000000002 -10639.47 -867.12 -901.71 -867.12 7774.14"
Ta 2.34759 1.66 0.09121 0.000483 0.000237 0.002314
Ta 0.0 0.0 0.09121 0.000483 0.000237 0.002314
Ta 0.0 1.66 2.3361 -8.8e-05 0.001538 -0.010267
Ta 2.34759 0.0 2.3361 -8.8e-05 0.001538 -0.010267
Ta 2.34759 1.66 4.68536 0.003111 -0.003535 -0.007607
Ta 0.0 0.0 4.68536 0.003111 -0.003535 -0.007607
Ta 0.0 1.66 7.03392 -0.007146 0.021127 0.073723
Ta 2.34759 0.0 7.03392 -0.007146 0.021127 0.073723
Ta 2.34759 1.66 9.38594 0.013663 -0.10734 -0.116992
Ta 0.0 0.0 9.38594 0.013663 -0.10734 -0.116992
Ta 0.0 1.66 11.73648 0.067747 0.328568 -0.821295
Ta 2.34759 0.0 11.73648 0.067747 0.328568 -0.821295
Ta 3.28663 2.324 14.08712 -0.067747 -0.328568 0.821295
Ta 0.93904 0.664 14.08712 -0.067747 -0.328568 0.821295
Ta 0.93904 2.324 16.43764 -0.013663 0.10734 0.116992
Ta 3.28663 0.664 16.43764 -0.013663 0.10734 0.116992
Ta 3.28663 2.324 18.78966 0.007146 -0.021127 -0.073723
Ta 0.93904 0.664 18.78966 0.007146 -0.021127 -0.073723
Ta 0.93904 2.324 21.13823 -0.003111 0.003535 0.007607
Ta 3.28663 0.664 21.13823 -0.003111 0.003535 0.007607
Ta 3.28663 2.324 23.48739 8.8e-05 -0.001538 0.010267
Ta 0.93904 0.664 23.48739 8.8e-05 -0.001538 0.010267
Ta 0.93904 2.324 25.73229 -0.000483 -0.000237 -0.002314
Ta 3.28663 0.664 25.73229 -0.000483 -0.000237 -0.002314
