24
Lattice="4.69519042969 0.0 0.0 0.0 3.31999993324 0.0 0.0 0.0 53.1199989319" Properties=species:S:1:pos:R:3:forces:R:3 energy=-279.584238 stress="-8455.84 -1472.71 2162.92 -1472.71 -8121.589999999999 1800.64 2162.92 1800.64 -338.96"
Ta 2.34759 1.66 0.07452 -0.000101 0.002118 -0.001067
Ta 0.0 0.0 0.07452 -0.000101 0.002118 -0.001067
Ta 0.0 1.66 2.31914 0.000559 -0.002302 0.001125
Ta 2.34759 0.0 2.31914 0.000559 -0.002302 0.001125
Ta 2.34759 1.66 4.6683 -0.011564 0.001165 -0.001122
Ta 0.0 0.0 4.6683 -0.011564 0.001165 -0.001122
Ta 0.0 1.66 7.0214 0.010839 -0.033575 -0.000333
Ta 2.34759 0.0 7.0214 0.010839 -0.033575 -0.000333
Ta 2.34759 1.66 9.36328 0.008027 0.132954 0.000561
Ta 0.0 0.0 9.36328 0.008027 0.132954 0.000561
Ta 0.0 1.66 11.70268 -0.232266 -0.441609 -0.001106
Ta 2.34759 0.0 11.70268 -0.232266 -0.441609 -0.001106
Ta 4.22567 2.988 14.12092 0.232266 0.441609 0.001106
Ta 1.87808 1.328 14.12092 0.232266 0.441609 0.001106
Ta 1.87808 2.988 16.4603 -0.008027 -0.132954 -0.000561
Ta 4.22567 1.328 16.4603 -0.008027 -0.132954 -0.000561
Ta 4.22567 2.988 18.80218 -0.010839 0.033575 0.000333
Ta 1.87808 1.328 18.80218 -0.010839 0.033575 0.000333
Ta 1.87808 2.988 21.15529 0.011564 -0.001165 0.001122
Ta 4.22567 1.328 21.15529 0.011564 -0.001165 0.001122
Ta 4.22567 2.988 23.50435 -0.000559 0.002302 -0.001125
Ta 1.87808 1.328 23.50435 -0.000559 0.002302 -0.001125
Ta 1.87808 2.988 25.74898 0.000101 -0.002118 0.001067
Ta 4.22567 1.328 25.74898 0.000101 -0.002118 0.001067
