24
Lattice="4.69519042969 0.0 0.0 0.0 3.31999993324 0.0 0.0 0.0 53.1199989319" Properties=species:S:1:pos:R:3:forces:R:3 energy=-279.896025 stress="-9869.42 0.0 0.0 0.0 -8124.2 0.0 0.0 0.0 -554.5600000000001"
Ta 2.34759 1.66 0.09121 0.0 0.0 0.000102
Ta 0.0 0.0 0.09121 0.0 0.0 0.000102
Ta 0.0 1.66 2.3361 0.0 0.0 -0.000104
Ta 2.34759 0.0 2.3361 0.0 0.0 -0.000104
Ta 2.34759 1.66 4.68536 0.0 0.0 0.000115
Ta 0.0 0.0 4.68536 0.0 0.0 0.000115
Ta 0.0 1.66 7.03392 0.0 0.0 0.002828
Ta 2.34759 0.0 7.03392 0.0 0.0 0.002828
Ta 2.34759 1.66 9.38594 0.0 0.0 -0.004132
Ta 0.0 0.0 9.38594 0.0 0.0 -0.004132
Ta 0.0 1.66 11.73648 0.0 0.0 0.001736
Ta 2.34759 0.0 11.73648 0.0 0.0 0.001736
Ta 2.34759 1.66 14.08712 0.0 0.0 -0.001736
Ta 0.0 0.0 14.08712 0.0 0.0 -0.001736
Ta 0.0 1.66 16.43764 0.0 0.0 0.004132
Ta 2.34759 0.0 16.43764 0.0 0.0 0.004132
Ta 2.34759 1.66 18.78966 0.0 0.0 -0.002828
Ta 0.0 0.0 18.78966 0.0 0.0 -0.002828
Ta 0.0 1.66 21.13823 0.0 0.0 -0.000115
Ta 2.34759 0.0 21.13823 0.0 0.0 -0.000115
Ta 2.34759 1.66 23.48739 0.0 0.0 0.000104
Ta 0.0 0.0 23.48739 0.0 0.0 0.000104
Ta 0.0 1.66 25.73229 0.0 0.0 -0.000102
Ta 2.34759 0.0 25.73229 0.0 0.0 -0.000102
