24
Lattice="4.69519042969 0.0 0.0 0.0 3.31999993324 0.0 0.0 0.0 53.1199989319" Properties=species:S:1:pos:R:3:forces:R:3 energy=-279.901657 stress="-9711.95 0.0 0.0 0.0 -7971.759999999999 0.0 0.0 0.0 -387.39"
Ta 2.34759 1.66 0.09122 0.0 0.0 -2.1e-05
Ta 0.0 0.0 0.09122 0.0 0.0 -2.1e-05
Ta 0.0 1.66 2.33609 0.0 0.0 0.000332
Ta 2.34759 0.0 2.33609 0.0 0.0 0.000332
Ta 2.34759 1.66 4.68537 0.0 0.0 0.000393
Ta 0.0 0.0 4.68537 0.0 0.0 0.000393
Ta 0.0 1.66 7.03419 0.0 0.0 8.4e-05
Ta 2.34759 0.0 7.03419 0.0 0.0 8.4e-05
Ta 2.34759 1.66 9.38555 0.0 0.0 -0.000286
Ta 0.0 0.0 9.38555 0.0 0.0 -0.000286
Ta 0.0 1.66 11.73665 0.0 0.0 -0.000509
Ta 2.34759 0.0 11.73665 0.0 0.0 -0.000509
Ta 4.69519 0.0 14.08695 0.0 0.0 0.000509
Ta 2.3476 1.66 14.08695 0.0 0.0 0.000509
Ta 2.3476 0.0 16.43803 0.0 0.0 0.000286
Ta 4.69519 1.66 16.43803 0.0 0.0 0.000286
Ta 4.69519 0.0 18.78939 0.0 0.0 -8.4e-05
Ta 2.3476 1.66 18.78939 0.0 0.0 -8.4e-05
Ta 2.3476 0.0 21.13822 0.0 0.0 -0.000393
Ta 4.69519 1.66 21.13822 0.0 0.0 -0.000393
Ta 4.69519 0.0 23.4874 0.0 0.0 -0.000332
Ta 2.3476 1.66 23.4874 0.0 0.0 -0.000332
Ta 2.3476 0.0 25.73228 0.0 0.0 2.1e-05
Ta 4.69519 1.66 25.73228 0.0 0.0 2.1e-05
