24
Lattice="4.69519042969 0.0 0.0 0.0 3.31999993324 0.0 0.0 0.0 53.1199989319" Properties=species:S:1:pos:R:3:forces:R:3 energy=-279.124427 stress="-3757.0899999999997 -2887.24 902.0 -2887.24 -10640.1 866.64 902.0 866.64 7774.740000000001"
Ta 2.34759 1.66 0.09121 -0.000483 -0.000237 0.002307
Ta 0.0 0.0 0.09121 -0.000483 -0.000237 0.002307
Ta 0.0 1.66 2.3361 8.9e-05 -0.001539 -0.010324
Ta 2.34759 0.0 2.3361 8.9e-05 -0.001539 -0.010324
Ta 2.34759 1.66 4.68536 -0.003111 0.003535 -0.007613
Ta 0.0 0.0 4.68536 -0.003111 0.003535 -0.007613
Ta 0.0 1.66 7.03392 0.007146 -0.021127 0.073738
Ta 2.34759 0.0 7.03392 0.007146 -0.021127 0.073738
Ta 2.34759 1.66 9.38594 -0.013663 0.107342 -0.116996
Ta 0.0 0.0 9.38594 -0.013663 0.107342 -0.116996
Ta 0.0 1.66 11.73648 -0.067743 -0.32857 -0.821304
Ta 2.34759 0.0 11.73648 -0.067743 -0.32857 -0.821304
Ta 3.75615 2.656 14.08712 0.067743 0.32857 0.821304
Ta 1.40856 0.996 14.08712 0.067743 0.32857 0.821304
Ta 1.40856 2.656 16.43764 0.013663 -0.107342 0.116996
Ta 3.75615 0.996 16.43764 0.013663 -0.107342 0.116996
Ta 3.75615 2.656 18.78966 -0.007146 0.021127 -0.073738
Ta 1.40856 0.996 18.78966 -0.007146 0.021127 -0.073738
Ta 1.40856 2.656 21.13823 0.003111 -0.003535 0.007613
Ta 3.75615 0.996 21.13823 0.003111 -0.003535 0.007613
Ta 3.75615 2.656 23.48739 -8.9e-05 0.001539 0.010324
Ta 1.40856 0.996 23.48739 -8.9e-05 0.001539 0.010324
Ta 1.40856 2.656 25.73229 0.000483 0.000237 -0.002307
Ta 3.75615 0.996 25.73229 0.000483 0.000237 -0.002307
