24
Lattice="4.69519042969 0.0 0.0 0.0 3.31999993324 0.0 0.0 0.0 53.1199989319" Properties=species:S:1:pos:R:3:forces:R:3 energy=-279.896025 stress="-9868.86 0.0 0.0 0.0 -8124.259999999999 0.0 0.0 0.0 -554.9"
Ta 2.34759 1.66 0.09121 0.0 0.0 0.000107
Ta 0.0 0.0 0.09121 0.0 0.0 0.000107
Ta 0.0 1.66 2.3361 0.0 0.0 -9.8e-05
Ta 2.34759 0.0 2.3361 0.0 0.0 -9.8e-05
Ta 2.34759 1.66 4.68536 0.0 0.0 0.000111
Ta 0.0 0.0 4.68536 0.0 0.0 0.000111
Ta 0.0 1.66 7.03392 0.0 0.0 0.002832
Ta 2.34759 0.0 7.03392 0.0 0.0 0.002832
Ta 2.34759 1.66 9.38594 0.0 0.0 -0.004127
Ta 0.0 0.0 9.38594 0.0 0.0 -0.004127
Ta 0.0 1.66 11.73648 0.0 0.0 0.001737
Ta 2.34759 0.0 11.73648 0.0 0.0 0.001737
Ta 4.69519 0.0 14.08712 0.0 0.0 -0.001737
Ta 2.3476 1.66 14.08712 0.0 0.0 -0.001737
Ta 2.3476 0.0 16.43764 0.0 0.0 0.004127
Ta 4.69519 1.66 16.43764 0.0 0.0 0.004127
Ta 4.69519 0.0 18.78966 0.0 0.0 -0.002832
Ta 2.3476 1.66 18.78966 0.0 0.0 -0.002832
Ta 2.3476 0.0 21.13823 0.0 0.0 -0.000111
Ta 4.69519 1.66 21.13823 0.0 0.0 -0.000111
Ta 4.69519 0.0 23.48739 0.0 0.0 9.8e-05
Ta 2.3476 1.66 23.48739 0.0 0.0 9.8e-05
Ta 2.3476 0.0 25.73229 0.0 0.0 -0.000107
Ta 4.69519 1.66 25.73229 0.0 0.0 -0.000107
