24
Lattice="4.69519042969 0.0 0.0 0.0 3.31999993324 0.0 0.0 0.0 53.1199989319" Properties=species:S:1:pos:R:3:forces:R:3 energy=-279.55564 stress="-7951.990000000001 -1470.47 -2323.28 -1470.47 -7087.54 -2242.19 -2323.28 -2242.19 1393.38"
Ta 2.34759 1.66 0.09121 6.8e-05 -0.00218 0.002247
Ta 0.0 0.0 0.09121 6.8e-05 -0.00218 0.002247
Ta 0.0 1.66 2.3361 -0.000373 0.001531 -0.005318
Ta 2.34759 0.0 2.3361 -0.000373 0.001531 -0.005318
Ta 2.34759 1.66 4.68536 0.011743 -0.002192 -0.00859
Ta 0.0 0.0 4.68536 0.011743 -0.002192 -0.00859
Ta 0.0 1.66 7.03392 -0.010535 0.038081 0.052269
Ta 2.34759 0.0 7.03392 -0.010535 0.038081 0.052269
Ta 2.34759 1.66 9.38594 -0.00905 -0.147322 -0.015198
Ta 0.0 0.0 9.38594 -0.00905 -0.147322 -0.015198
Ta 0.0 1.66 11.73648 0.255618 0.52958 -0.348689
Ta 2.34759 0.0 11.73648 0.255618 0.52958 -0.348689
Ta 2.81711 1.992 14.08712 -0.255618 -0.52958 0.348689
Ta 0.46952 0.332 14.08712 -0.255618 -0.52958 0.348689
Ta 0.46952 1.992 16.43764 0.00905 0.147322 0.015198
Ta 2.81711 0.332 16.43764 0.00905 0.147322 0.015198
Ta 2.81711 1.992 18.78966 0.010535 -0.038081 -0.052269
Ta 0.46952 0.332 18.78966 0.010535 -0.038081 -0.052269
Ta 0.46952 1.992 21.13823 -0.011743 0.002192 0.00859
Ta 2.81711 0.332 21.13823 -0.011743 0.002192 0.00859
Ta 2.81711 1.992 23.48739 0.000373 -0.001531 0.005318
Ta 0.46952 0.332 23.48739 0.000373 -0.001531 0.005318
Ta 0.46952 1.992 25.73229 -6.8e-05 0.00218 -0.002247
Ta 2.81711 0.332 25.73229 -6.8e-05 0.00218 -0.002247
