24
Lattice="4.69519042969 0.0 0.0 0.0 3.31999993324 0.0 0.0 0.0 53.1199989319" Properties=species:S:1:pos:R:3:forces:R:3 energy=-279.379366 stress="-7763.09 -1797.51 1889.74 -1797.51 -10164.59 1320.57 1889.74 1320.57 34.12"
Ta 2.34759 1.66 0.05376 -0.000259 0.002166 -0.001263
Ta 0.0 0.0 0.05376 -0.000259 0.002166 -0.001263
Ta 0.0 1.66 2.29821 0.000506 -0.00178 0.000245
Ta 2.34759 0.0 2.29821 0.000506 -0.00178 0.000245
Ta 2.34759 1.66 4.64698 -0.007327 0.004782 -0.001824
Ta 0.0 0.0 4.64698 -0.007327 0.004782 -0.001824
Ta 0.0 1.66 7.00162 0.008163 -0.030937 -0.001313
Ta 2.34759 0.0 7.00162 0.008163 -0.030937 -0.001313
Ta 2.34759 1.66 9.33764 -0.007098 0.132381 -0.001661
Ta 0.0 0.0 9.33764 -0.007098 0.132381 -0.001661
Ta 0.0 1.66 11.67998 -0.168672 -0.393164 0.000838
Ta 2.34759 0.0 11.67998 -0.168672 -0.393164 0.000838
Ta 3.99091 2.822 14.14362 0.168672 0.393164 -0.000838
Ta 1.64332 1.162 14.14362 0.168672 0.393164 -0.000838
Ta 1.64332 2.822 16.48594 0.007098 -0.132381 0.001661
Ta 3.99091 1.162 16.48594 0.007098 -0.132381 0.001661
Ta 3.99091 2.822 18.82196 -0.008163 0.030937 0.001313
Ta 1.64332 1.162 18.82196 -0.008163 0.030937 0.001313
Ta 1.64332 2.822 21.17661 0.007327 -0.004782 0.001824
Ta 3.99091 1.162 21.17661 0.007327 -0.004782 0.001824
Ta 3.99091 2.822 23.52528 -0.000506 0.00178 -0.000245
Ta 1.64332 1.162 23.52528 -0.000506 0.00178 -0.000245
Ta 1.64332 2.822 25.76974 0.000259 -0.002166 0.001263
Ta 3.99091 1.162 25.76974 0.000259 -0.002166 0.001263
