24
Lattice="4.69519042969 0.0 0.0 0.0 3.31999993324 0.0 0.0 0.0 53.1199989319" Properties=species:S:1:pos:R:3:forces:R:3 energy=-279.302157 stress="-5999.4800000000005 -2091.2000000000003 2059.81 -2091.2000000000003 -8317.08 1933.52 2059.81 1933.52 4766.58"
Ta 2.34759 1.66 0.09121 -0.000338 0.000764 0.003027
Ta 0.0 0.0 0.09121 -0.000338 0.000764 0.003027
Ta 0.0 1.66 2.3361 0.000192 -0.002217 -0.008526
Ta 2.34759 0.0 2.3361 0.000192 -0.002217 -0.008526
Ta 2.34759 1.66 4.68536 -0.007402 0.005681 -0.011124
Ta 0.0 0.0 4.68536 -0.007402 0.005681 -0.011124
Ta 0.0 1.66 7.03392 0.010084 -0.035505 0.068661
Ta 2.34759 0.0 7.03392 0.010084 -0.035505 0.068661
Ta 2.34759 1.66 9.38594 -0.009421 0.162854 -0.055124
Ta 0.0 0.0 9.38594 -0.009421 0.162854 -0.055124
Ta 0.0 1.66 11.73648 -0.194591 -0.543144 -0.645027
Ta 2.34759 0.0 11.73648 -0.194591 -0.543144 -0.645027
Ta 3.99091 2.822 14.08712 0.194591 0.543144 0.645027
Ta 1.64332 1.162 14.08712 0.194591 0.543144 0.645027
Ta 1.64332 2.822 16.43764 0.009421 -0.162854 0.055124
Ta 3.99091 1.162 16.43764 0.009421 -0.162854 0.055124
Ta 3.99091 2.822 18.78966 -0.010084 0.035505 -0.068661
Ta 1.64332 1.162 18.78966 -0.010084 0.035505 -0.068661
Ta 1.64332 2.822 21.13823 0.007402 -0.005681 0.011124
Ta 3.99091 1.162 21.13823 0.007402 -0.005681 0.011124
Ta 3.99091 2.822 23.48739 -0.000192 0.002217 0.008526
Ta 1.64332 1.162 23.48739 -0.000192 0.002217 0.008526
Ta 1.64332 2.822 25.73229 0.000338 -0.000764 -0.003027
Ta 3.99091 1.162 25.73229 0.000338 -0.000764 -0.003027
