LAMMPS (4 Jul 2026)
  using 1 OpenMP thread(s) per MPI task
# exaStamp parity counterpart of LAMMPS examples/snap_ttm/snap_ttm_couplage_ttm (Te-dependent SNAP + fix ttm),
# made deterministic: 4^3 TTM grid = exaStamp 4^3 cell grid (grid_subdiv 1), non uniform initial Te (ttm_grid.in,
# 1.5/2.5/3.5/4.5 eV along x), Langevin coupling off (gamma_p > 0 is required: 1e-50 -> noise ~1e-18 eV/ang,
# gamma_s 0), so Te only evolves by diffusion. NEEDS the fix ttm pre_force patch (src/EXTRA-FIX/fix_ttm.cpp):
# without it f_twotemp is set after the pair style (one step late).
variable nsteps index 100
units           metal
boundary        p p p
lattice         fcc 4.078
Lattice spacing in x,y,z = 4.078 4.078 4.078
region          box block 0 4 0 4 0 4
create_box      1 box
Created orthogonal box = (0 0 0) to (16.312 16.312 16.312)
  1 by 1 by 1 MPI processor grid
create_atoms    1 box
Created 256 atoms
  using lattice units in orthogonal box = (0 0 0) to (16.312 16.312 16.312)
  create_atoms CPU = 0.001 seconds
mass            1 196.9665

#              seed   C_e       rho_e    kappa_e   gamma_p gamma_s v_0     Nx Ny Nz
fix twotemp all ttm 342785 1.2470e-5 0.087614 0.0005365 1e-50   0.0     58.4613 4 4 4 infile ttm_grid.in

pair_style hybrid/overlay zbl 2.0 3.5 snap_ttm
pair_coeff 1 1 zbl 79 79
pair_coeff * * snap_ttm dir.inputs/Au.snapcoeff dir.inputs/Au.snapparam dir.inputs/Au.snapbetas Au f_twotemp
Reading potential file dir.inputs/Au.snapcoeff with DATE: 2017-09-18
SNAPTTM Element = Au, Radius 4.25, Weight 1
SNAPTTM keyword rcutfac 0.5
SNAPTTM keyword twojmax 8
SNAPTTM keyword rfac0 0.99363
SNAPTTM keyword rmin0 0.0
SNAPTTM keyword bzeroflag 0
SNAPTTM keyword quadraticflag 0

compute avgte all reduce ave f_twotemp
thermo          1
thermo_style    custom step temp pe ke etotal press c_avgte
thermo_modify   norm yes format float %.16g

timestep 1.0e-3
neighbor 1.0 bin
neigh_modify once no every 1 delay 0 check yes

velocity all create 600.0 3423 dist gaussian
write_dump all custom init.dump id type x y z vx vy vz modify sort id format float %.17g
WARNING: Calling write_dump before a full system init (src/write_dump.cpp:87)
fix 1 all nve
run             ${nsteps}
run             100
Neighbor list info ...
  update: every = 1 steps, delay = 0 steps, check = yes
  max neighbors/atom: 2000, page size: 100000
  master list distance cutoff = 5.25
  ghost atom cutoff = 5.25
  binsize = 2.625, bins = 7 7 7
  2 neighbor lists, perpetual/occasional/extra = 2 0 0
  (1) pair zbl, perpetual, half/full from (2)
      attributes: half, newton on
      pair build: halffull/newton
      stencil: none
      bin: none
  (2) pair snap_ttm, perpetual
      attributes: full, newton on, cut 5.25
      pair build: full/bin/atomonly
      stencil: full/bin/3d
      bin: standard
Per MPI rank memory allocation (min/avg/max) = 4.691 | 4.691 | 4.691 Mbytes
   Step          Temp          PotEng         KinEng         TotEng         Press         c_avgte    
         0  600 -15967.59954743775 0.07725313353515627 -15967.52229430421 666396.1824728141 34813.57501849713
         1  597.459538427377 -15967.74393129105 0.07692603583997162 -15967.66700525521 677092.0261503173 35176.2164249398
         2  595.7066267286785 -15967.47003291748 0.07670033930408016 -15967.39333257818 665427.165033899 34928.14933143382
         3  594.3072554374775 -15967.33041526801 0.07652016294203945 -15967.25389510507 661761.4868828126 34909.57882631788
         4  592.9736364666892 -15967.21140975551 0.07634845253464724 -15967.13506130298 658772.8045428906 34893.49924417551
         5  591.5616723317581 -15967.0879386506 0.07616665477820944 -15967.01177199583 654915.9821442318 34835.94941345904
         6  589.9351165390224 -15966.93510726942 0.07595722722511178 -15966.85915004219 648633.9076727155 34691.1713458967
         7  588.0592076773839 -15966.82226558478 0.07571569416213188 -15966.74654989062 644535.2766455107 34605.58672981417
         8  585.9169108870669 -15966.76341819927 0.07543986226210805 -15966.687978337 643611.6422887765 34611.57317800351
         9  583.441606951161 -15966.67737357287 0.07512115395294033 -15966.60225241891 640589.615587779 34545.65642267873
        10  580.5763322695099 -15966.63041742068 0.07475223487361282 -15966.55566518581 639795.3065847284 34542.93571578956
        11  577.2613327533569 -15966.57018991443 0.07432541137312892 -15966.49586450305 638031.2172510797 34507.00392926105
        12  573.4298579383772 -15966.51334035042 0.07383208898059856 -15966.43950826144 636231.9346300164 34465.03851946555
        13  569.1087737795491 -15966.49104336187 0.07327572682803424 -15966.41776763504 636496.6460422575 34484.27828017862
        14  564.3564450141397 -15966.47204500289 0.07266383968017234 -15966.39938116321 636826.1970604429 34502.54049483163
        15  559.1662386383925 -15966.45585873635 0.07199557350313798 -15966.38386316284 637209.5137722734 34519.86415141498
        16  553.5177740603726 -15966.42748170462 0.07126830418928069 -15966.35621340043 636692.9962610414 34506.78726515723
        17  547.4155701530666 -15966.41639631128 0.07048261356709759 -15966.34591369771 637200.5831405221 34523.68606302068
        18  540.8860169596429 -15966.40704334856 0.06964189949247014 -15966.33740144906 637737.6214485255 34539.73085125186
        19  533.9329973233292 -15966.3819344867 0.06874666190174231 -15966.3131878248 637172.6415047314 34519.92785500013
        20  526.5696187721602 -15966.37645902185 0.06779858845760336 -15966.30866043339 637828.1932141997 34536.71219184322
        21  518.8175854981305 -15966.3719640749 0.06680047368812404 -15966.30516360122 638493.4046830335 34552.57113886499
        22  510.6950690585961 -15966.35427840682 0.06575465727621595 -15966.28852374955 638250.191434248 34539.06551316485
        23  502.2213215301178 -15966.33911945969 0.06466361802728141 -15966.27445584166 638132.0785781158 34528.473214581
        24  493.4180014062538 -15966.32867778514 0.06353014458547875 -15966.26514764056 638283.7509866566 34525.47189140831
        25  484.3103495728498 -15966.32885533061 0.06235748684668263 -15966.26649784377 639098.4631225785 34542.33751265903
        26  474.9241188047391 -15966.32930112484 0.06114896061514821 -15966.26815216423 639902.7230443447 34558.22467193389
        27  465.2859590099515 -15966.31996318492 0.05990799720571505 -15966.26005518771 640042.0820256014 34552.83869329434
        28  455.4160903646661 -15966.31199003542 0.05863720007166724 -15966.25335283534 640254.8968050695 34549.19016537938
        29  445.3431954462159 -15966.3141039965 0.05734026224463285 -15966.25676373425 641101.9588258901 34564.89363418905
        30  435.1037707049832 -15966.31621328636 0.05602188283320346 -15966.26019140352 641930.433145488 34579.65909664255
        31  424.7275578768064 -15966.31829437011 0.05468589124119623 -15966.26360847887 642740.6070846125 34593.5432021077
        32  414.2448452792585 -15966.32032865367 0.05333618724768117 -15966.26699246642 643532.1511651904 34606.59910630888
        33  403.685733980533 -15966.31634010377 0.0519766465223928 -15966.26436345725 643914.4601027069 34606.76305136532
        34  393.0810274637302 -15966.31856938372 0.0506112351746533 -15966.26795814854 644688.458902566 34618.97657515575
        35  382.4619909952547 -15966.32070223979 0.04924397877079691 -15966.27145826102 645441.6111414332 34630.4688149439
        36  371.8593834214309 -15966.32273409824 0.04787883767292779 -15966.27485526057 646174.0981664031 34641.28236700418
        37  361.3038857923297 -15966.32466258437 0.04651976222647615 -15966.27814282214 646886.2672772795 34651.45731203813
        38  350.8259172268488 -15966.32648714285 0.04517066905186571 -15966.2813164738 647577.8033751056 34661.03136373425
        39  340.4554224961251 -15966.32820872923 0.04383541369476866 -15966.28437331554 648248.4405358176 34670.04000855477
        40  330.2217661608956 -15966.32982955355 0.04251777699573802 -15966.28731177656 648898.0594574552 34678.51663726736
        41  320.1536161303832 -15966.33135282989 0.04122145009780608 -15966.29013137979 649526.2370947304 34686.49266870848
        42  310.2789165893828 -15966.3327826014 0.03995003096070533 -15966.29283257044 650133.8018881615 34693.99766623837
        43  300.6248004993122 -15966.33412356796 0.0387070130949218 -15966.29541655486 650720.67338752 34701.05944731845
        44  291.2173202122524 -15966.33538090242 0.03749575087684583 -15966.29788515154 651285.9196306855 34707.70418661686
        45  282.0814611672218 -15966.3365601432 0.03631946131223897 -15966.30024068189 651830.6547922544 34713.95651302631
        46  273.2409884428297 -15966.33758738258 0.03518120427908668 -15966.3024061783 652349.0952254127 34719.68111742561
        47  264.7180493900345 -15966.33599808796 0.03408383136449071 -15966.3019142566 652678.6546111627 34719.86277106064
        48  256.53362703416 -15966.337138309 0.03303004424254656 -15966.30410826475 653168.6423477428 34725.39705797542
        49  248.7075369750266 -15966.33821458786 0.03202239427521924 -15966.30619219358 653636.7931961974 34730.6045110718
        50  241.2578971506446 -15966.33923338584 0.03106321424164957 -15966.3081701716 654083.240783058 34735.50443190525
        51  234.2012093233939 -15966.3402009967 0.03015462882992539 -15966.31004636787 654507.7420850466 34740.11498215486
        52  227.5522122964057 -15966.34112348941 0.0292985357379241 -15966.31182495367 654909.6283029751 34744.4532509405
        53  221.3236305882252 -15966.34015970505 0.02849657331386293 -15966.31166313174 655168.324166248 34744.77520059094
        54  215.5266739764262 -15966.34111624248 0.02775018487514824 -15966.3133660576 655532.2959879248 34748.83437192423
        55  210.1709927906657 -15966.34203815919 0.02706061295212277 -15966.31497754624 655873.3229124672 34752.65428272737
        56  205.2641626041386 -15966.3429307031 0.02642883293939925 -15966.31650187016 656191.796391036 34756.2490086453
        57  200.8119714555109 -15966.34379877932 0.02585559007718429 -15966.31794318925 656488.3574457027 34759.6318004671
        58  196.8180660499971 -15966.34326736771 0.02534135389781939 -15966.31792601381 656671.8223593044 34759.99319002654
        59  193.2845169006374 -15966.34418115642 0.02488639099067185 -15966.31929476543 656930.283721088 34763.15545674714
        60  190.211940474519 -15966.34507817863 0.02449078072909868 -15966.3205873979 657167.31276917 34766.13121671673
        61  187.5988772797967 -15966.34596215465 0.02415433519590254 -15966.32180781946 657383.6982187653 34768.93145541709
        62  185.4417287200817 -15966.34572975833 0.02387659105300449 -15966.32185316728 657509.6887577708 34769.35442254903
        63  183.7355831188739 -15966.34666250285 0.02365691589640362 -15966.32300558696 657688.8633652603 34771.96466907424
        64  182.4741093795076 -15966.34758721349 0.02349449456433968 -15966.32409271892 657847.8016346445 34774.42091238768
        65  181.6489481067357 -15966.3485063198 0.02338825074101721 -15966.32511806905 657987.2678281735 34776.73222985306
        66  181.2501796837591 -15966.3485523949 0.02333690722396752 -15966.32521548767 658052.8630080173 34777.16029993764
        67  181.2664551510713 -15966.34951787329 0.02333900277538354 -15966.32617887051 658158.7042615419 34779.31081394131
        68  181.6849465617148 -15966.35047981287 0.02339288573009981 -15966.32708692713 658246.6793089771 34781.33432681301
        69  182.4914354267321 -15966.35143944979 0.02349672538340614 -15966.32794272441 658317.3698183625 34783.23833875364
        70  183.6704453270025 -15966.35239770204 0.02364852906551423 -15966.32874917298 658371.5687181026 34785.02990703146
        71  185.2049763248722 -15966.35271412894 0.02384610794566801 -15966.32886802099 658369.7205295598 34785.42981155682
        72  187.0773546197327 -15966.35370916097 0.02408718642973666 -15966.32962197454 658395.5536547155 34787.09236401821
        73  189.269216822577 -15966.35413314273 0.02436940013548165 -15966.32976374259 658371.1374779771 34787.51895233864
        74  191.7610815574825 -15966.35515663147 0.02469024073401031 -15966.33046639074 658371.504388157 34789.05835264127
        75  194.5322990683408 -15966.35666602963 0.02504704946137914 -15966.33161898017 658392.5493711552 34791.51351474862
        76  197.5621390954826 -15966.35811554814 0.02543715718839073 -15966.33267839095 658397.541817736 34793.76367530046
        77  200.8295977253811 -15966.35906804979 0.0258578595514843 -15966.33321019023 658359.654113688 34794.93365745771
        78  204.3127292723902 -15966.35960314771 0.02630633092902031 -15966.33329681679 658285.3578388899 34795.20212357963
        79  207.9891906173212 -15966.36057368771 0.02677969452771497 -15966.33379399318 658229.6151473148 34796.28949273336
        80  211.8361482486779 -15966.36153686225 0.02727501041371379 -15966.33426185184 658165.3389034488 34797.31222221125
        81  215.8308462873364 -15966.36248963746 0.02778934864873564 -15966.33470028881 658093.1378002057 34798.2703021706
        82  219.9504926164742 -15966.36343385009 0.02831977462870647 -15966.33511407546 658014.1361956424 34799.17391017302
        83  224.1723621630117 -15966.36436699081 0.02886336238178425 -15966.33550362842 657929.1296892102 34800.02418170962
        84  228.473892205697 -15966.3652875573 0.02941720683977268 -15966.33587035046 657839.1917245386 34800.82426341926
        85  232.8327623886603 -15966.36619399923 0.02997843414028413 -15966.33621556509 657745.1865548488 34801.57711649168
        86  237.2270257335351 -15966.36708473804 0.03054421849523457 -15966.33654051955 657648.4522224015 34802.28552757382
        87  241.6350849970285 -15966.36819474517 0.03111177914675713 -15966.33708296603 657564.9000358602 34803.43414531593
        88  246.035960084037 -15966.36903534304 0.03167841479803747 -15966.33735692824 657463.1808636566 34804.03297240105
        89  250.4093675351538 -15966.36985664816 0.03224151384774543 -15966.33761513431 657360.4824716815 34804.59715388848
        90  254.7355740359572 -15966.37065632913 0.03279853552859081 -15966.3378577936 657257.9047292639 34805.12726808551
        91  258.9955438176501 -15966.37143320937 0.03334702888592556 -15966.33808618048 657155.3020382564 34805.62608570504
        92  263.1709963981262 -15966.37218576859 0.03388464021220762 -15966.33830112838 657053.4540600695 34806.0954538287
        93  267.2445035662151 -15966.37291254848 0.03440912553422894 -15966.33850342295 656952.8590771386 34806.53711059605
        94  271.1995236129946 -15966.37361215958 0.03491835502057573 -15966.33869380456 656854.2649452302 34806.95269162073
        95  275.0204707360279 -15966.37428329186 0.0354103219177865 -15966.33887296994 656758.3277038395 34807.34373603133
        96  278.6927742948352 -15966.37492472591 0.03588315017980345 -15966.33904157573 656665.3481364719 34807.71169215615
        97  282.2029115401054 -15966.37553534045 0.03633509868202942 -15966.33920024177 656576.0220589036 34808.05792287524
        98  285.5383987343268 -15966.37623423358 0.03676456007806275 -15966.3394696735 656498.7231702097 34808.63116754805
        99  288.6880982575893 -15966.37677301352 0.03717010034117309 -15966.33960291317 656417.6215538194 34808.92349718254
       100  291.6417850872318 -15966.3772787517 0.0375504029462921 -15966.33972834876 656341.4341346886 34809.19795961049
Loop time of 6.3832 on 1 procs for 100 steps with 256 atoms

Performance: 1.354 ns/day, 17.731 hours/ns, 15.666 timesteps/s, 4.011 katom-step/s
99.1% CPU use with 1 MPI tasks x 1 OpenMP threads

MPI task timing breakdown:
Section |  min time  |  avg time  |  max time  |%varavg| %total
---------------------------------------------------------------
Pair    | 6.3789     | 6.3789     | 6.3789     |   0.0 | 99.93
Neigh   | 0          | 0          | 0          |   0.0 |  0.00
Comm    | 0.00030177 | 0.00030177 | 0.00030177 |   0.0 |  0.00
Output  | 0.0013176  | 0.0013176  | 0.0013176  |   0.0 |  0.02
Modify  | 0.0025153  | 0.0025153  | 0.0025153  |   0.0 |  0.04
Other   |            | 0.0001696  |            |       |  0.00

Nlocal:            256 ave         256 max         256 min
Histogram: 1 0 0 0 0 0 0 0 0 0
Nghost:            843 ave         843 max         843 min
Histogram: 1 0 0 0 0 0 0 0 0 0
Neighs:           5376 ave        5376 max        5376 min
Histogram: 1 0 0 0 0 0 0 0 0 0
FullNghs:        10752 ave       10752 max       10752 min
Histogram: 1 0 0 0 0 0 0 0 0 0

Total # of neighbors = 10752
Ave neighs/atom = 42
Neighbor list builds = 0
Dangerous builds = 0
Total wall time: 0:00:06
