54
Lattice="9.96000003815 0.0 0.0 0.0 9.96000003815 0.0 0.0 0.0 9.96000003815" Properties=species:S:1:pos:R:3:forces:R:3 energy=-631.386255 stress="48618.67 -1616.79 -530.36 -1616.79 47533.82 1218.01 -530.36 1218.01 48883.18"
Ta 9.92016 0.01438 0.03854 0.556788 -0.67783 -1.5106
Ta 1.82311 1.70936 1.41659 -1.918774 0.138683 2.301326
Ta 3.28553 9.91893 0.14739 0.748737 -0.469771 -1.769605
Ta 9.87507 3.32337 9.83154 0.793708 -0.519091 0.991363
Ta 3.3031 3.46518 0.07875 0.443248 -0.426577 -0.905273
Ta 9.95947 0.08218 3.34696 0.739427 -0.726997 -0.766983
Ta 3.1684 9.75979 3.2356 1.642308 1.605642 1.000091
Ta 0.02998 3.22821 3.21978 0.370247 0.48123 0.316324
Ta 3.32428 3.45789 3.46471 0.337827 -1.517721 -1.355537
Ta 5.13331 1.59317 1.61007 -2.537997 2.199599 0.12697
Ta 6.66564 0.10058 0.15795 -0.170102 -1.253786 -3.131771
Ta 8.39979 1.53376 1.55197 -0.736293 2.568367 0.959357
Ta 6.699 3.46643 9.78218 -1.357883 -2.290461 2.801884
Ta 6.55739 0.19963 3.22195 1.010984 -1.898276 1.569223
Ta 6.6614 3.19875 3.40136 0.28987 0.883996 -0.281886
Ta 1.65474 4.95752 1.79601 -0.834231 0.053286 -1.593869
Ta 9.95302 6.80511 0.03196 -0.079769 -1.229448 0.075092
Ta 1.56181 8.37445 1.75774 0.103273 -1.036598 -1.620168
Ta 3.25788 6.58258 9.89943 -0.15681 0.002856 0.109545
Ta 9.81575 6.84635 3.22839 0.491934 -1.902197 0.607502
Ta 3.26659 6.5421 3.20775 1.051845 1.685557 0.716388
Ta 4.961 4.94444 1.67842 0.154733 0.132572 -0.385023
Ta 8.39914 5.00135 1.64081 -0.85754 -0.046821 0.044073
Ta 4.981 8.40495 1.52317 -0.154277 -1.618489 1.137429
Ta 6.59095 6.57229 9.81082 0.516853 -0.031072 2.168022
Ta 8.23079 8.50453 1.71947 -0.19104 -1.640479 -0.218034
Ta 6.5189 6.4527 3.26946 1.051143 1.341567 0.195318
Ta 1.69996 1.52396 4.92178 -0.286649 1.057284 0.327442
Ta 9.71449 0.20654 6.76983 2.454386 -2.330371 -0.861132
Ta 1.75395 1.54634 8.40434 -0.369274 0.99695 -0.846145
Ta 3.36184 9.91466 6.55661 -0.545145 -0.225476 0.969587
Ta 0.07017 3.38145 6.72746 -0.97093 -1.700112 -1.838196
Ta 3.188 3.32611 6.41893 0.788188 -0.658484 1.70621
Ta 4.88158 1.53321 4.98105 0.344727 0.704928 0.157548
Ta 8.47411 1.59131 4.94665 -1.939704 1.794052 0.479038
Ta 4.88901 1.78086 8.34967 0.243383 -0.808705 -0.52527
Ta 6.73425 9.77434 6.70175 -1.485362 1.795728 -1.262133
Ta 8.06248 1.71241 8.15301 1.263397 0.222212 1.789119
Ta 6.58956 3.39493 6.70849 -0.327807 -0.793748 -1.979357
Ta 1.72658 5.14855 4.93998 -1.319359 -0.168591 0.474034
Ta 1.56142 8.14402 4.97342 0.414502 1.370212 0.309023
Ta 1.49024 4.85879 8.1549 2.112914 2.183214 1.555991
Ta 9.89805 6.74264 6.68864 -0.638427 -1.761151 -1.247128
Ta 1.51881 8.19293 8.20586 1.126883 1.771936 0.731665
Ta 3.53422 6.78757 6.63995 -2.202411 -1.241629 0.531987
Ta 4.91797 5.05055 5.07395 0.97697 -0.452695 -0.680973
Ta 8.37523 4.90856 4.86905 -0.569914 0.544987 0.445982
Ta 4.96025 8.30839 4.98936 0.640131 -0.024991 -0.918091
Ta 8.25393 8.41481 4.85824 -0.321351 -0.771339 0.862505
Ta 4.98338 4.92238 8.25755 -1.037048 0.701643 -0.025492
Ta 8.20041 4.82836 8.34047 1.93369 2.92161 -1.499861
Ta 5.14911 8.22565 8.35035 -2.453675 1.564843 0.655552
Ta 6.67583 6.74955 6.82036 -0.298729 -2.031929 -2.821342
Ta 8.24568 8.22146 8.24391 1.158405 1.531882 1.928281
