54
Lattice="9.96000003815 0.0 0.0 0.0 9.96000003815 0.0 0.0 0.0 9.96000003815" Properties=species:S:1:pos:R:3:forces:R:3 energy=-630.450212 stress="54872.520000000004 561.84 254.42 561.84 57576.3 3236.46 254.42 3236.46 52454.13"
Ta 9.94993 0.02472 0.14274 0.055475 -0.868863 -2.639446
Ta 1.73941 1.62931 1.49216 0.133385 0.958345 1.334282
Ta 3.27456 9.84431 0.06714 0.152037 0.685105 -1.338688
Ta 9.89722 3.30899 9.8442 0.882932 -0.580173 1.896163
Ta 3.39949 3.43937 0.07444 -1.252525 -0.603574 -1.126923
Ta 9.95738 0.18394 3.26338 0.661235 -1.926241 0.911392
Ta 3.30019 9.78645 3.22208 0.028724 1.660063 1.023838
Ta 0.13719 3.26818 3.17619 -0.70546 0.166489 0.836621
Ta 3.35898 3.53996 3.45643 -0.084938 -1.979508 -0.962122
Ta 5.04991 1.63426 1.4814 -1.341163 1.468593 1.819665
Ta 6.63167 0.11405 0.21537 -0.12109 -1.761401 -4.075404
Ta 8.31494 1.42157 1.60574 0.368731 4.528905 0.569883
Ta 6.74419 3.49221 9.84811 -2.007412 -2.167313 2.65689
Ta 6.63412 0.20045 3.26587 -0.684628 -1.087473 1.050812
Ta 6.74149 3.29744 3.34049 -0.536207 0.257368 0.20051
Ta 1.65629 4.91473 1.70491 -0.099545 0.910351 -0.802777
Ta 9.8848 6.82698 0.05792 0.376337 -1.495085 -0.415922
Ta 1.52902 8.3382 1.76782 0.639344 -0.53398 -1.01794
Ta 3.2842 6.59888 0.05835 -0.561013 0.262988 -0.786249
Ta 9.8388 6.70884 3.26058 0.554427 -0.634265 0.300656
Ta 3.29697 6.67135 3.2332 0.752046 -0.215397 0.311965
Ta 4.97002 4.96577 1.62011 0.05044 0.104913 0.434502
Ta 8.33172 4.99905 1.67588 -0.034233 0.026594 -0.111203
Ta 4.97516 8.44565 1.55002 -0.020779 -1.935482 0.889879
Ta 6.57558 6.51621 9.81153 1.066759 1.429994 2.384917
Ta 8.25006 8.48199 1.74936 -0.452919 -1.834688 -0.031687
Ta 6.44899 6.4711 3.23262 1.703195 1.475113 0.740876
Ta 1.66863 1.57808 4.93069 0.431628 0.338513 0.161788
Ta 9.72144 0.20932 6.75785 1.958848 -2.154971 -0.993231
Ta 1.63635 1.60616 8.35046 0.463086 0.37157 -0.091186
Ta 3.48302 0.00215 6.71334 -1.509435 -0.172883 0.010894
Ta 9.93596 3.25148 6.70143 0.237451 -0.065117 -1.344746
Ta 3.08129 3.29628 6.51691 2.160928 -0.13483 0.507974
Ta 4.96743 1.5573 5.07437 0.055528 1.049799 -0.152912
Ta 8.45292 1.6707 5.00536 -1.761269 1.037855 -0.291955
Ta 4.94629 1.85995 8.30452 -0.162188 -1.40003 0.218906
Ta 6.73739 9.79788 6.73002 -1.360293 2.553733 -1.038778
Ta 8.13299 1.84164 8.23538 1.255041 -2.346864 1.564886
Ta 6.66656 3.37782 6.84701 -0.835313 0.379035 -3.422381
Ta 1.68024 5.12154 4.98734 -0.660796 0.080462 0.142574
Ta 1.60982 8.10644 4.87313 0.325313 1.774663 1.223699
Ta 1.43945 4.82885 8.10227 2.085236 1.993105 1.922899
Ta 9.9461 6.81388 6.73985 -0.837177 -1.923205 -1.883599
Ta 1.46223 8.29911 8.22847 1.981531 0.926889 0.882329
Ta 3.56097 6.69411 6.63008 -2.368401 -0.099926 0.349055
Ta 4.97662 5.05599 5.0457 0.641095 -0.663324 -0.062532
Ta 8.47313 4.93262 4.89931 -1.205654 0.412649 0.354766
Ta 4.99461 8.38381 5.00182 0.283353 -0.567275 -0.555014
Ta 8.15164 8.40758 4.84002 1.070067 -0.7384 0.47295
Ta 5.02489 5.02411 8.3462 -1.295414 -0.424201 -1.125591
Ta 8.29233 4.81641 8.42543 1.342299 3.650693 -2.347555
Ta 5.13768 8.20531 8.35183 -1.942023 1.3521 0.356008
Ta 6.7424 6.82181 6.74362 -1.121731 -2.790179 -1.913012
Ta 8.24574 8.2733 8.18525 1.245134 1.248761 2.999274
