54
Lattice="9.96000003815 0.0 0.0 0.0 9.96000003815 0.0 0.0 0.0 9.96000003815" Properties=species:S:1:pos:R:3:forces:R:3 energy=-631.719595 stress="44221.5 1652.1999999999998 85.95 1652.1999999999998 46661.8 2659.1800000000003 85.95 2659.1800000000003 45398.76"
Ta 9.88176 9.87945 0.1862 0.078511 0.774502 -3.074145
Ta 1.72277 1.64067 1.45897 -0.388557 1.148359 1.788807
Ta 3.29248 9.91934 0.1304 0.320177 -0.192327 -1.925714
Ta 9.9322 3.28625 9.92067 0.151826 0.305556 0.342341
Ta 3.39626 3.47237 0.027 -1.172443 -1.196633 -0.381029
Ta 9.82641 0.17857 3.34651 1.471988 -1.800854 -0.398222
Ta 3.18421 9.75374 3.20228 1.172612 2.338131 1.461522
Ta 0.0643 3.32106 3.21026 -0.524353 -0.677178 0.569751
Ta 3.36095 3.52794 3.46046 0.265224 -1.853189 -1.194265
Ta 5.05551 1.59902 1.56265 -1.305786 1.821863 0.915691
Ta 6.55573 0.10614 0.0715 0.473027 -1.331628 -1.56567
Ta 8.32355 1.55377 1.58678 -0.34357 2.420135 0.231492
Ta 6.79062 3.46987 9.80057 -2.578904 -2.079435 2.539246
Ta 6.65472 0.19462 3.23542 -0.854033 -1.11806 1.182547
Ta 6.68241 3.29629 3.38474 -0.467825 0.142616 -0.130294
Ta 1.6702 4.89369 1.79281 -0.731988 0.661803 -1.877031
Ta 9.93781 6.83545 0.11497 -0.079074 -1.393283 -0.700726
Ta 1.55467 8.44593 1.70683 -0.318713 -2.059723 0.143176
Ta 3.12799 6.70462 0.09695 0.649317 -0.982046 -0.987759
Ta 9.87365 6.726 3.29089 0.358887 -0.808113 0.020022
Ta 3.21735 6.54561 3.18977 1.043621 1.493821 1.154247
Ta 5.01268 5.00658 1.62783 -0.475689 -0.239773 0.337642
Ta 8.30126 4.99697 1.66463 -0.164073 0.238569 0.134521
Ta 4.9138 8.33572 1.62276 0.337469 -0.531079 0.293633
Ta 6.4397 6.55776 9.88777 1.902994 0.646598 1.055407
Ta 8.2046 8.46737 1.69724 -0.705785 -1.624672 0.59768
Ta 6.47327 6.53333 3.348 1.087057 0.860747 -0.071448
Ta 1.63781 1.56651 4.86513 0.303333 0.759117 0.988318
Ta 9.7163 0.09312 6.79336 1.972395 -0.68173 -1.740951
Ta 1.61582 1.57397 8.30893 0.534301 0.691166 0.33332
Ta 3.49451 0.05066 6.70224 -2.318362 -0.853012 0.193493
Ta 9.94977 3.38199 6.78886 -0.299979 -1.645948 -1.888923
Ta 3.18672 3.36165 6.43952 0.586136 -0.962061 1.644513
Ta 4.89114 1.58583 5.10545 0.895504 0.96948 -1.159718
Ta 8.35054 1.66148 5.06446 -0.650427 1.385707 -0.230145
Ta 4.86816 1.73116 8.31179 0.899776 0.423663 0.126451
Ta 6.68153 9.92387 6.63426 -0.794656 0.815228 0.039522
Ta 8.19213 1.74268 8.29407 0.709237 -0.766675 0.419655
Ta 6.68538 3.41569 6.73237 -1.039762 -0.942693 -1.573563
Ta 1.62301 5.03369 4.94072 -0.479437 0.708177 0.454442
Ta 1.67811 8.17661 4.94845 -0.43286 1.033108 0.702773
Ta 1.50449 4.90497 8.12727 2.157996 1.39217 2.121635
Ta 9.95522 6.68722 6.7223 -1.207088 -1.014513 -2.023602
Ta 1.45061 8.21644 8.20658 1.867458 1.404377 0.979038
Ta 3.56471 6.75841 6.62207 -3.094311 -0.309955 1.003355
Ta 4.86687 5.12412 5.14144 1.869234 -0.95749 -1.296573
Ta 8.38876 4.88961 4.89775 -0.647449 1.012711 0.567511
Ta 4.92136 8.45113 5.01625 0.770451 -1.088974 -1.090266
Ta 8.20783 8.3489 4.81321 0.21963 0.005286 1.165586
Ta 4.94875 4.9618 8.28572 -0.426832 0.599091 -0.345599
Ta 8.20464 4.88251 8.34235 2.170673 2.829715 -0.757157
Ta 5.07191 8.2117 8.40225 -1.362796 1.673933 -0.46401
Ta 6.76974 6.82114 6.74241 -1.906068 -2.251947 -1.927455
Ta 8.24859 8.29304 8.12672 0.501988 0.80736 3.296928
