54
Lattice="9.96000003815 0.0 0.0 0.0 9.96000003815 0.0 0.0 0.0 9.96000003815" Properties=species:S:1:pos:R:3:forces:R:3 energy=-632.575826 stress="37007.6 -3335.61 -654.2900000000001 -3335.61 41350.14000000001 729.9499999999999 -654.2900000000001 729.9499999999999 42032.22"
Ta 9.89658 0.05915 0.05605 1.036339 -0.553602 -1.509413
Ta 1.84029 1.75247 1.5692 -1.142381 -0.38124 0.773395
Ta 3.2103 9.87745 0.03021 0.881726 0.55755 -0.326543
Ta 0.02515 3.41269 9.87251 -0.122739 -0.795043 1.221499
Ta 3.43008 3.44154 0.03351 -1.7763 -1.011632 -0.445853
Ta 9.87697 0.19214 3.32206 1.584106 -2.293162 0.196284
Ta 3.22174 9.87812 3.28991 0.769286 0.831055 0.301207
Ta 0.1052 3.26647 3.18262 -0.190214 0.336725 0.865636
Ta 3.41777 3.41426 3.37277 -0.455402 -0.720753 -0.151548
Ta 5.17196 1.58588 1.62527 -2.939961 2.107641 0.562846
Ta 6.60208 0.22971 0.08742 0.803627 -2.595707 -2.375381
Ta 8.43127 1.4925 1.61697 -1.259463 3.750632 -0.106891
Ta 6.76348 3.3785 9.80186 -2.03401 -1.195377 2.585494
Ta 6.65909 0.1949 3.2601 -0.56741 -1.409525 1.503945
Ta 6.6316 3.23626 3.37906 0.319 0.938546 -0.113448
Ta 1.62284 5.00729 1.75386 -0.237159 -0.599216 -1.433498
Ta 9.93301 6.82006 0.07168 -0.603293 -1.11764 -0.086884
Ta 1.52042 8.42173 1.76252 0.366653 -0.814026 -0.80013
Ta 3.21357 6.59587 0.05473 -0.149533 0.25932 -0.610436
Ta 9.80178 6.73879 3.20649 0.278464 -0.754372 0.931782
Ta 3.18872 6.5548 3.14659 1.331155 1.227953 1.549942
Ta 4.90812 4.89326 1.56359 1.415424 1.204801 1.175799
Ta 8.30391 4.92482 1.63948 -0.141538 0.852068 0.296628
Ta 4.96767 8.43868 1.50927 -0.390065 -1.085888 1.127117
Ta 6.58605 6.61068 9.88944 0.61683 -0.473365 1.726223
Ta 8.16049 8.53247 1.75295 0.195242 -1.799944 -0.538088
Ta 6.52605 6.5329 3.27653 0.530753 0.627982 -0.045421
Ta 1.62199 1.50417 4.93639 0.838566 1.316864 0.614038
Ta 9.80755 0.13028 6.79412 0.867567 -1.141378 -1.30953
Ta 1.7363 1.62901 8.31191 -0.210323 0.210696 0.384316
Ta 3.35607 9.88966 6.63602 -0.80484 0.044494 0.395101
Ta 0.10319 3.2834 6.73662 -1.43873 -0.584218 -1.316375
Ta 3.23105 3.25793 6.54382 0.621854 0.133901 0.243236
Ta 4.92957 1.63938 4.99734 0.279261 -0.276038 0.237899
Ta 8.42481 1.65711 4.95454 -1.326796 1.057458 1.098206
Ta 4.84069 1.75925 8.38234 0.745716 -0.829046 -0.859739
Ta 6.64597 9.80629 6.69075 -0.741154 2.128175 -0.430751
Ta 8.19543 1.78177 8.30388 1.200953 -1.19775 -0.25616
Ta 6.57343 3.34206 6.80779 0.135786 -0.186078 -2.215599
Ta 1.6324 5.02772 5.04564 -0.039204 0.36717 -0.650982
Ta 1.56954 8.11698 4.93801 0.230278 1.550094 0.24251
Ta 1.44091 4.90529 8.17235 2.716493 1.617542 1.20799
Ta 9.93346 6.67194 6.71914 -1.022256 -0.17536 -0.867865
Ta 1.47975 8.31024 8.36713 1.004335 0.238704 -0.734919
Ta 3.48998 6.76276 6.56515 -1.924801 -0.712464 1.159232
Ta 4.9581 5.06922 5.0693 0.337345 -0.924942 -0.538749
Ta 8.40596 4.88849 4.85949 -0.874232 0.467588 0.615094
Ta 4.91272 8.41158 4.96637 0.732014 -1.112804 -0.699182
Ta 8.15337 8.43609 4.86865 0.839591 -1.003948 0.68469
Ta 4.9461 4.9089 8.30806 -0.155864 1.182133 -0.492917
Ta 8.17416 4.94211 8.40779 2.376142 1.640431 -1.638172
Ta 5.14706 8.15632 8.46125 -2.44524 1.8416 -0.879395
Ta 6.73636 6.72505 6.79496 -1.106421 -1.283292 -2.272742
Ta 8.21344 8.32047 8.22695 1.044823 0.536684 2.006502
