54
Lattice="9.96000003815 0.0 0.0 0.0 9.96000003815 0.0 0.0 0.0 9.96000003815" Properties=species:S:1:pos:R:3:forces:R:3 energy=-631.669379 stress="43133.57 -1318.24 471.24 -1318.24 48697.43 3329.94 471.24 3329.94 47363.12"
Ta 9.94799 9.88693 0.10122 -0.263284 1.216688 -1.883794
Ta 1.86889 1.76555 1.56581 -1.932894 -0.197466 0.799563
Ta 3.18914 9.88171 0.13041 0.610905 0.517831 -1.648338
Ta 9.92665 3.38968 9.84955 0.317542 -1.257416 1.688263
Ta 3.43358 3.54499 0.1688 -1.726787 -2.050304 -2.386849
Ta 9.82474 0.16394 3.32778 2.216383 -1.538245 -0.264099
Ta 3.17727 9.89254 3.26737 1.70172 0.460024 0.157384
Ta 0.07445 3.24025 3.20793 -0.069552 0.434181 0.546568
Ta 3.36565 3.516 3.35675 0.112956 -1.917705 -0.223914
Ta 5.16123 1.6239 1.55508 -3.303498 2.564182 1.651578
Ta 6.55575 0.21191 0.17217 1.231731 -2.686607 -3.911866
Ta 8.29508 1.55441 1.6632 0.089146 2.52746 -0.701653
Ta 6.73309 3.48714 9.89848 -2.274779 -2.67868 1.66594
Ta 6.59035 0.09173 3.21496 -0.0633 -0.576713 2.012973
Ta 6.64791 3.2176 3.34745 0.160139 1.027979 0.160616
Ta 1.65171 4.94471 1.7425 -0.713082 0.706387 -1.212205
Ta 9.93323 6.79042 0.0161 -0.225077 -1.132914 -0.016869
Ta 1.4431 8.3808 1.76113 1.378961 -0.749711 -0.52572
Ta 3.21108 6.66508 0.00376 -0.00978 -0.476703 -0.29896
Ta 9.81714 6.70548 3.17335 0.208961 -0.701521 1.301811
Ta 3.21572 6.591 3.22023 1.033304 1.008256 0.532303
Ta 4.91106 4.93792 1.58572 1.678571 2.009249 1.603115
Ta 8.26464 4.94698 1.60854 0.497683 0.531052 0.869356
Ta 4.90809 8.44903 1.49243 0.088267 -1.613979 1.633781
Ta 6.59154 6.59584 9.95944 0.505361 0.227865 0.830287
Ta 8.21527 8.54264 1.72812 -0.429569 -2.313543 -0.559364
Ta 6.55385 6.57757 3.26324 0.271827 0.622681 0.181604
Ta 1.75661 1.52675 4.84155 -0.633945 1.321519 1.006441
Ta 9.87636 0.21376 6.70268 0.45418 -1.893615 -0.40218
Ta 1.6521 1.61415 8.35169 0.600238 0.373907 0.119151
Ta 3.44156 0.04311 6.6096 -1.495661 -0.599002 0.704379
Ta 0.09339 3.37032 6.65029 -1.099312 -1.412438 -0.819685
Ta 3.18042 3.28906 6.45515 0.992949 0.211285 1.220556
Ta 5.00918 1.65807 5.12559 0.127178 -0.0364 -1.088507
Ta 8.38565 1.61267 4.93819 -1.405672 1.604515 0.911956
Ta 4.81649 1.82535 8.27026 1.005288 -0.428096 0.38029
Ta 6.74177 9.88632 6.6854 -1.192978 0.733832 -0.379597
Ta 8.06265 1.81199 8.23079 2.096046 -1.128412 0.494263
Ta 6.62079 3.42161 6.7044 -0.241025 -0.422289 -1.432335
Ta 1.71584 5.10974 5.01063 -0.952074 0.094302 -0.330628
Ta 1.6423 8.21258 4.88283 -0.325763 0.887706 0.945961
Ta 1.49636 4.82702 8.22043 2.120092 2.257811 0.840294
Ta 9.95578 6.72188 6.72066 -0.190571 -0.973108 -1.045394
Ta 1.57396 8.29892 8.32339 0.49698 0.587894 -0.638339
Ta 3.53534 6.71052 6.61516 -2.080422 -0.439087 0.577691
Ta 4.91158 5.00762 4.99897 1.141976 -0.039622 -0.08708
Ta 8.42976 4.87775 4.88036 -0.952974 0.858021 0.171909
Ta 4.90384 8.41136 4.98652 0.894637 -0.884584 -0.741048
Ta 8.2864 8.42598 4.87128 -0.087899 -0.922239 0.910409
Ta 5.03024 4.97737 8.34689 -1.018587 0.572925 -0.691072
Ta 8.23151 4.84154 8.4374 1.578619 3.115272 -2.575512
Ta 5.1302 8.08126 8.35768 -1.750753 2.547363 0.298061
Ta 6.65325 6.73813 6.7005 0.162071 -1.670992 -1.976694
Ta 8.2436 8.19187 8.19738 0.665528 1.721207 1.625195
