LAMMPS (4 Jul 2026)
  using 1 OpenMP thread(s) per MPI task
# exaStamp parity counterpart of LAMMPS examples/snap_ttm/snap_ttm_constant_te (Te-dependent SNAP, constant Te)
variable nsteps index 100
variable te_eV index 2.5
units           metal
boundary        p p p
lattice         fcc 4.078
Lattice spacing in x,y,z = 4.078 4.078 4.078
region          box block 0 4 0 4 0 4
create_box      1 box
Created orthogonal box = (0 0 0) to (16.312 16.312 16.312)
  1 by 1 by 1 MPI processor grid
create_atoms    1 box
Created 256 atoms
  using lattice units in orthogonal box = (0 0 0) to (16.312 16.312 16.312)
  create_atoms CPU = 0.001 seconds
mass            1 196.9665

variable conv_K_to_eV equal 8.61732814974056e-5
variable te_K equal ${te_eV}/${conv_K_to_eV}
variable te_K equal 2.5/${conv_K_to_eV}
variable te_K equal 2.5/8.61732814974056e-05
variable myte_var atom ${te_K}
variable myte_var atom 29011.3125154143
fix myte all ave/atom 1 1 1 v_myte_var

pair_style hybrid/overlay zbl 2.0 3.5 snap_ttm
pair_coeff 1 1 zbl 79 79
pair_coeff * * snap_ttm dir.inputs/Au.snapcoeff dir.inputs/Au.snapparam dir.inputs/Au.snapbetas Au f_myte
Reading potential file dir.inputs/Au.snapcoeff with DATE: 2017-09-18
SNAPTTM Element = Au, Radius 4.25, Weight 1
SNAPTTM keyword rcutfac 0.5
SNAPTTM keyword twojmax 8
SNAPTTM keyword rfac0 0.99363
SNAPTTM keyword rmin0 0.0
SNAPTTM keyword bzeroflag 0
SNAPTTM keyword quadraticflag 0

thermo          1
thermo_style    custom step temp pe ke etotal press pxx pyy pzz pxy pxz pyz
thermo_modify   norm yes format float %.16g

timestep 1.0e-3
neighbor 1.0 bin
neigh_modify once no every 1 delay 0 check yes

velocity all create 600.0 3423 dist gaussian
# exact initial state (positions+velocities) for exaStamp, converted by ../../snap/lmp2xyz.py
write_dump all custom init.dump id type x y z vx vy vz modify sort id format float %.17g
WARNING: Calling write_dump before a full system init (src/write_dump.cpp:87)
fix 1 all nve
run             ${nsteps}
run             100
Neighbor list info ...
  update: every = 1 steps, delay = 0 steps, check = yes
  max neighbors/atom: 2000, page size: 100000
  master list distance cutoff = 5.25
  ghost atom cutoff = 5.25
  binsize = 2.625, bins = 7 7 7
  2 neighbor lists, perpetual/occasional/extra = 2 0 0
  (1) pair zbl, perpetual, half/full from (2)
      attributes: half, newton on
      pair build: halffull/newton
      stencil: none
      bin: none
  (2) pair snap_ttm, perpetual
      attributes: full, newton on, cut 5.25
      pair build: full/bin/atomonly
      stencil: full/bin/3d
      bin: standard
Per MPI rank memory allocation (min/avg/max) = 4.439 | 4.439 | 4.439 Mbytes
   Step          Temp          PotEng         KinEng         TotEng         Press           Pxx            Pyy            Pzz            Pxy            Pxz            Pyz      
         0  600 -15958.36274888366 0.07725313353515627 -15958.28549575012 -39344.53767585038 -39035.05161542595 -39838.25028174964 -39160.31113037557 151.5706311748083 -426.1766767323769 -327.4595092632905
         1  599.7661195570382 -15963.81711956198 0.07722302020667061 -15963.73989654177 458894.4470626937 459203.5428602536 458401.1852533202 459078.6130745073 151.5179433631371 -426.6775435770688 -327.7172711495977
         2  599.0651812825313 -15963.81702929673 0.07713277074313664 -15963.73989652599 458926.7596728849 459234.6852331626 458434.8450891267 459110.7486963652 151.3608328258137 -428.1716792649548 -328.4881164672169
         3  597.8990614811578 -15963.81687912974 0.07698262672858081 -15963.73989650301 458980.5144658992 459286.4920135706 458490.8338312279 459164.217552899 151.101578246241 -430.6450425286437 -329.7680058505589
         4  596.2705737614157 -15963.81666942331 0.07677295042979147 -15963.73989647288 459055.5753337374 459358.8302979203 458569.0038752639 459238.891828028 150.7426825710144 -434.0818372717396 -331.5520836009112
         5  594.1834621108072 -15963.8164006596 0.07650422390471276 -15963.7398964357 459151.7584250409 459451.5204456471 458669.1581553748 459334.5966741012 150.2868978523583 -438.464544212822 -333.8347060600907
         6  591.6423931489538 -15963.81607343949 0.07617704800499259 -15963.73989639149 459268.8327131569 459564.3366466557 458791.05079392 459451.1106988951 149.7372509490053 -443.7739528192116 -336.6094696412431
         7  588.65294753513 -15963.81568848162 0.07579214126965789 -15963.73989634035 459406.5206670559 459697.0075901701 458934.38786249 459588.1665485079 149.0970697873067 -449.9891938072991 -339.8692382721615
         8  585.221610493467 -15963.81524662101 0.07535033870518501 -15963.7398962823 459564.4990235036 459849.2172334024 459098.8282519272 459745.4515851815 148.3700098160564 -457.0877725420069 -343.6061701572817
         9  581.3557614066506 -15963.81474880792 0.07485259044563403 -15963.73989621748 459742.3996589376 460020.6056685916 459283.9846490153 459922.608659206 147.560080277624 -465.0456036192764 -347.8117435945139
        10  577.0636624172582 -15963.81419610625 0.0742999602850113 -15963.73989614596 459939.8105594784 460210.7700868941 459489.4246174207 460119.2369741205 146.6716699061064 -473.837047022769 -352.4767817280043
        11  572.354445965281 -15963.81358969189 0.07369362407266039 -15963.73989606782 460156.2768875356 460419.2658376298 459714.671780401 460334.8930445758 145.7095716209534 -483.434946140471 -357.5914760614102
        12  567.2381011808815 -15963.81293085113 0.07303486796125852 -15963.73989598317 460391.3021434137 460645.6075813506 459959.2071027341 460569.0917461566 144.6790058061656 -493.8106680235312 -363.145408569896
        13  561.7254590431703 -15963.81222097861 0.07232508649593164 -15963.73989589211 460644.3494203686 460889.2705351841 460222.47026926 460821.3074566616 143.5856417157765 -504.9341461706511 -369.1275722741133
        14  555.8281762089243 -15963.81146157531 0.07156578053211733 -15963.73989579478 460914.8427514312 461149.6918088021 460503.8611573373 461090.9752881542 142.4356165879881 -516.7739261730579 -375.5263901787992
        15  549.5587174097637 -15963.81065424626 0.07075855496910947 -15963.73989569129 461202.1685463308 461426.2718293369 460802.7414004407 461377.4924092148 141.2355520229716 -529.2972144977995 -382.3297324573385
        16  542.9303363125229 -15963.8098006981 0.06990511628573104 -15963.73989558181 461505.6771167226 461718.375853439 461118.4360400575 461680.2194566712 139.992567185226 -542.4699306855938 -389.5249318219878
        17  535.9570547354275 -15963.80890273638 0.06900726986430838 -15963.73989546652 461824.684287825 462025.3355645674 461450.2352629055 461998.4820360023 138.7142884434272 -556.2567631682557 -397.0987970494477
        18  528.6536401123578 -15963.80796226262 0.06806691708907736 -15963.73989534553 462158.4730944592 462346.4507534583 461797.3962204338 462331.5723094853 137.4088550243945 -570.6212289520749 -405.0376246499743
        19  521.0355810990176 -15963.80698127127 0.06708605220535024 -15963.73989521907 462506.2955592936 462680.9910795546 462159.1449273848 462678.7506709415 136.0849203225966 -585.5257372850917 -413.3272087127174
        20  513.119061218249 -15963.80596184627 0.06606675892621236 -15963.73989508735 462867.3745509489 463028.1979109913 462534.6782361189 463039.2475057365 134.7516485361241 -600.9316574595321 -421.9528489879496
        21  504.9209304471546 -15963.80490615734 0.06501120677421564 -15963.73989495056 463240.9057193897 463387.2862405272 462923.1658832223 463412.2650344197 133.4187062953372 -616.799390827591 -430.8993573241537
        22  496.4586746560766 -15963.80381645614 0.06392164714648764 -15963.739894809 463626.0595058049 463757.4466745715 463323.7526047321 463796.9792381111 132.0962490501458 -633.0884470916199 -440.151062604852
        23  487.7503828189046 -15963.80269507197 0.06280040909288737 -15963.73989466288 464021.9832239064 464137.8474921899 463735.5603161691 464192.5418633603 130.7949019659541 -649.7575248267498 -449.6918143512915
        24  478.8147119255897 -15963.80154440727 0.06164989479830826 -15963.73989451248 464427.803209322 464527.6367707272 464157.6903533289 464598.0825039101 129.5257351737509 -666.7645962469865 -459.5049852488664
        25  469.6708495411134 -15963.8003669329 0.06047257476194987 -15963.73989435813 464842.6270334169 464925.9445743366 464589.2257695915 465012.7107563227 128.3002332492543 -684.0669960942855 -469.5734728157326
        26  460.3384739704577 -15963.79916518282 0.05927098266834971 -15963.73989420015 465265.5457775804 465331.8852014314 465029.2336852379 465435.5184460719 127.1302588449671 -701.6215145466841 -479.8797005425035
        27  450.8377120062572 -15963.7979417488 0.05804770994717285 -15963.73989403885 465695.6363636427 465744.5594866894 465476.7676840539 465865.5819201845 126.0280104823222 -719.3844939726478 -490.4056187996964
        28  441.1891760472773 -15963.79669928126 0.05680541055240979 -15963.73989387071 466132.4549126959 466163.0513256487 465930.8646463556 466303.4487660832 125.0061217062289 -737.3022265287361 -501.1119706712595
        29  431.4139279920411 -15963.79544050032 0.05554679631349239 -15963.739893704 466575.1224127427 466586.4148061755 466390.5307776829 466748.4216543696 124.0772300608213 -755.3400584134249 -511.9721466268552
        30  421.5332725374791 -15963.79416814339 0.05427461032141549 -15963.73989353307 467022.2485226048 467013.7183129746 466855.2349185517 467197.792336288 123.2614356239809 -773.4526653240108 -522.9863788787673
        31  411.5687232923414 -15963.79288498507 0.05299162256566171 -15963.7398933625 467473.0662378087 467444.0214809919 467324.5895533029 467650.5876791314 122.582641818214 -791.5954514227524 -534.1288784133682
        32  401.5419690607359 -15963.79159381627 0.05170062559303103 -15963.73989319068 467926.2691249974 467876.391969013 467796.5751676829 468105.8402382964 122.0383957889488 -809.7242134198509 -545.3888390675737
        33  391.4748397995525 -15963.79029744809 0.05040443012448122 -15963.73989301797 468381.3200161777 468311.1650309496 468270.2140314177 468562.5809861658 121.6225379398381 -827.8137654347071 -556.7453202161826
        34  381.3892742928417 -15963.78899870376 0.0491058608930354 -15963.73989284286 468837.0336005385 468746.7280698268 468744.5313496993 469019.8413820892 121.3544861329145 -845.7948231874724 -568.1776372168565
        35  371.3072890492623 -15963.78770042254 0.04780775263916587 -15963.7398926699 469293.0500226493 469183.9550662227 469218.5480223763 469476.6469793491 121.2416880415902 -863.6224276341136 -579.6642330671181
        36  361.2508349270315 -15963.7864054294 0.04651293165050775 -15963.73989249774 469747.6410543277 469619.5798513356 469691.3033931034 469932.0399185439 121.3108141867727 -881.2619238194458 -591.1828007182015
        37  351.2416963235995 -15963.78511652686 0.04522420278200306 -15963.73989232408 470200.2469339092 470053.347236988 470162.1272343784 470385.2663303611 121.5437598695326 -898.6624342519776 -602.7144213679729
        38  341.3016262468532 -15963.78383652054 0.04394436684702357 -15963.7398921537 470650.8167358617 470483.9406808276 470631.5793818124 470836.9301449453 121.9412816250063 -915.7632720537626 -614.2737841182195
        39  331.4521606599228 -15963.78256818185 0.04267619671329513 -15963.73989198514 471097.784427962 470911.6475268864 471096.9359717425 471284.7697852571 122.5444473649714 -932.5527816377033 -625.8103482714037
        40  321.7144096732084 -15963.78131423144 0.04142241041778055 -15963.73989182102 471539.8089842551 471334.6592883517 471557.2988023218 471727.4688620922 123.3698920578818 -948.9917194169266 -637.2899029473245
        41  312.1090671248401 -15963.78007733149 0.04018567240021387 -15963.73989165909 471975.9845064075 471751.6264475264 472011.80266638 472164.5244053159 124.4310456044106 -965.0239814863342 -648.6866942356423
        42  302.6564193231554 -15963.77886009583 0.03896859462873995 -15963.7398915012 472405.7200810731 472161.7414219091 472459.8867118724 472595.5321094379 125.7300276273902 -980.5921197244655 -659.9785966125687
        43  293.3763531647011 -15963.7776650836 0.03777373764514969 -15963.73989134595 472828.9841869957 472564.2145965071 472902.9660523013 473019.7719121785 127.2947732600197 -995.7117243246557 -671.153526901449
        44  284.2882312598655 -15963.77649479149 0.03660359448665296 -15963.73989119701 473244.678516041 472958.3558179419 473337.9643945663 473437.7153356147 129.1270224758167 -1010.351048355201 -682.1769254290089
        45  275.410737668459 -15963.77535162489 0.03546057082352893 -15963.73989105406 473651.8113487728 473344.3020085183 473764.0950614875 473847.0369763125 131.2276869966029 -1024.416082166147 -693.0129706038089
        46  266.7618768484376 -15963.77423790164 0.03434698482376877 -15963.73989091681 474050.1191612357 473722.0902141057 474180.763298869 474247.5039707322 133.579497439723 -1037.926022215412 -703.6336072019151
        47  258.3588512193884 -15963.77315583831 0.03326505138873496 -15963.73989078693 474437.9457649629 474089.3970627294 474586.8457179199 474637.5945142395 136.2062294973932 -1050.849935763344 -714.0390422863707
        48  250.2179862686775 -15963.77210753523 0.03221687251018673 -15963.73989066272 474814.7206837452 474445.5584969711 474981.6888803946 475016.91467387 139.11176390003 -1063.129770313625 -724.199774080066
        49  242.3547578725362 -15963.77109498709 0.0312044407880125 -15963.7398905463 475179.8786539495 474789.9921726129 475364.6732374155 475384.9705518201 142.2975985067502 -1074.750916704237 -734.0901114948507
        50  234.7837264991881 -15963.77012006846 0.03022963095853897 -15963.73989043751 475532.8105537162 475122.1565545231 475735.6261361363 475740.6489704893 145.7748767242354 -1085.704618362201 -743.6803472150655
        51  227.5184887443701 -15963.76918452984 0.02929419365447629 -15963.73989033618 475873.0251368358 475441.887614252 476094.0627169402 476083.1250793152 149.5449002360909 -1095.969060313262 -752.949654479746
        52  220.5716695927 -15963.76828999811 0.0283997544085287 -15963.7398902437 476200.5472026062 475748.8230522289 476440.299114565 476412.5194410247 153.6031190103001 -1105.531490267429 -761.8884633393466
        53  213.9548496530861 -15963.76743796473 0.02754780428457358 -15963.73989016045 476514.6965423221 476042.3281770953 476773.6563551128 476728.1050947583 157.9266594971599 -1114.368215161771 -770.435713373589
        54  207.6784766044963 -15963.7666297741 0.02673968847584163 -15963.73989008563 476814.7199274024 476322.0686362978 477092.5995979544 477029.4915479552 162.5192127410858 -1122.449616710301 -778.5871454447517
        55  201.7518544016355 -15963.76586662559 0.02597660491509158 -15963.73989002068 477100.1847767479 476587.4390744548 477396.8711011116 477316.244154677 167.3751017766696 -1129.776716864352 -786.3280370905403
        56  196.1831373458253 -15963.76514956877 0.02525960351120491 -15963.73988996526 477370.9934763107 476839.0245928854 477686.3477217525 477587.6081142942 172.5142903314265 -1136.375301205502 -793.6567873690597
        57  190.9792896278813 -15963.76447950043 0.02458958094012 -15963.73988991949 477626.5007067735 477075.7543093493 477960.4419519412 477843.3058590298 177.896036471747 -1142.202919249808 -800.538183598176
        58  186.1460660621389 -15963.76385716142 0.0239672781642374 -15963.73988988326 477866.5696853369 477297.3745155978 478219.2225047558 478083.1120356572 183.5072789767013 -1147.254624344221 -806.9510422828452
        59  181.6880213602972 -15963.76328313833 0.02339328162647561 -15963.73988985671 478091.0793888735 477504.0848414316 478462.3045512931 478306.8487738957 189.3329398589673 -1151.525885687771 -812.8801306919432
        60  177.6084978912895 -15963.76275786133 0.02286802167429051 -15963.73988983966 478299.8729841883 477695.6690472573 478689.457393583 478514.4925117246 195.3590562940146 -1155.011350286547 -818.30496912668
        61  173.9096408224171 -15963.76228160727 0.02239177450917542 -15963.73988983276 478493.1566237667 477872.1713855342 478900.7144274747 478706.5840582915 201.5763681387733 -1157.704798032579 -823.1816598708418
        62  170.5923740643579 -15963.76185449479 0.02196465908945528 -15963.7398898357 478670.5593599568 478033.2513980638 479096.0601162621 478882.3665655446 207.9568132115616 -1159.62751226327 -827.5312203707352
        63  167.6564000880959 -15963.76147648497 0.02158663710671542 -15963.73988984787 478832.2541751018 478178.9551389919 479275.9492725549 479041.8581137584 214.4952625354095 -1160.787276946873 -831.3759654233775
        64  165.1002309232105 -15963.7611473865 0.02125751697699319 -15963.73988986952 478978.198861737 478309.3719528101 479439.9713435458 479185.2532888554 221.1593336744838 -1161.199039771414 -834.6811786547087
        65  162.9212067766726 -15963.76086685698 0.02097695623804515 -15963.73988990075 479108.742622627 478424.976633329 479588.0889934538 479313.1622410981 227.9295495306442 -1160.893820691566 -837.4434373009731
        66  161.1155152040219 -15963.76063440493 0.02074446401773633 -15963.73988994091 479223.9003103279 478525.6233974869 479720.5206216246 479425.5569118722 234.7761028723975 -1159.845701712398 -839.6611944523955
        67  159.6782074084244 -15963.76044939286 0.02055940313262898 -15963.73988998973 479323.9243793333 478611.8879716292 479837.6915469507 479522.1936194204 241.6682287624483 -1158.070673196767 -841.3131281178707
        68  158.6032331662479 -15963.76031104196 0.02042099458483279 -15963.73989004738 479408.8773075638 478683.8501602093 479939.4986925006 479603.2830699816 248.586881591804 -1155.592598191978 -842.3857045991654
        69  157.883475321991 -15963.76021843496 0.0203283220034072 -15963.73989011296 479479.040270095 478741.5850165341 480026.20998774 479669.3258060109 255.5091096636158 -1152.443844881063 -842.8795422707126
        70  157.5108029743939 -15963.76017052477 0.02028033849235091 -15963.73989018628 479534.8099325442 478785.4270995623 480098.3676842843 479720.6350137857 262.4121864694473 -1148.644890996714 -842.8003403832193
        71  157.4761394501094 -15963.76016614262 0.02027587538256698 -15963.73989026723 479576.7948986416 478816.6603643709 480156.3688955316 479757.3554360222 269.2539413201467 -1144.176165462615 -842.1468856393892
        72  157.7694788182093 -15963.76020399955 0.02031364435819189 -15963.73989035519 479604.9836141767 478834.786836317 480200.2820090295 479779.8819971836 276.0182354534546 -1139.095463485916 -840.9111652267416
        73  158.3799200354592 -15963.76028269136 0.02039224185297784 -15963.73989044951 479619.9030838354 478840.2327452449 480230.5167390763 479788.959767185 282.677696399126 -1133.420272537539 -839.0919803690192
        74  159.2957515661527 -15963.76040070971 0.02051015994553846 -15963.73989054976 479622.0602921186 478833.4624288122 480247.6963179539 479785.02212959 289.2029554612212 -1127.17892128297 -836.692968241737
        75  160.5045086888938 -15963.76055644917 0.02066579373789627 -15963.73989065543 479611.9795193262 478814.9671117016 480252.2040007648 479768.7674455124 295.566609040323 -1120.398171429244 -833.7261942513172
        76  161.9930412915005 -15963.76074821672 0.02085745008443062 -15963.73989076663 479590.2077852378 478785.2613336839 480244.4145182864 479740.9475037432 301.7414248840901 -1113.106655264229 -830.2206179897545
        77  163.7475530518549 -15963.760974235 0.02108335263661672 -15963.73989088237 479557.0670225636 478744.9668209459 480224.8465182408 479701.3877285042 307.7039232002401 -1105.340273024843 -826.1689467410537
        78  165.7536559342815 -15963.76123265095 0.02134164885971898 -15963.73989100209 479513.2618731878 478695.0800115629 480194.0436662622 479650.6619417383 313.4479381866822 -1097.138492807897 -821.5841952018091
        79  167.9964637129169 -15963.76152154689 0.02163042207441334 -15963.73989112482 479459.393529832 478636.1036748246 480152.7142152982 479589.3626993732 318.9385839629309 -1088.517990663896 -816.4850813178927
        80  170.460676689238 -15963.7618389534 0.02194770236461134 -15963.73989125104 479396.1531958963 478568.1843120696 480102.1771434891 479518.0981321302 324.1352976127745 -1079.508257432706 -810.9121443172679
        81  173.1306076251737 -15963.76218284962 0.02229146991648381 -15963.7398913797 479323.854820397 478491.9274019107 480042.1442645317 479437.4927947485 329.0074464876913 -1070.138836142848 -804.8529969239082
        82  175.9902286506365 -15963.7625511713 0.0226596610580505 -15963.73989151025 479243.1209610416 478407.9518902086 479973.2228771795 479348.1881157366 333.529376682803 -1060.439306981319 -798.3266988007583
        83  179.0232672954102 -15963.76294182276 0.02305018062378717 -15963.73989164214 479154.5839715351 478316.885223375 479896.030432587 479250.8362586435 337.6762174401099 -1050.43898801142 -791.3538019316035
        84  182.2132719880026 -15963.76335268528 0.02346091038794486 -15963.73989177489 479058.8835626574 478219.36095351 479811.1921343302 479146.097600132 341.4239811648239 -1040.166787675377 -783.9562798634449
        85  185.5436767736225 -15963.76378162536 0.02388971739732755 -15963.73989190797 478956.6643830496 478116.0163683471 479719.3385550253 479034.6382257763 344.7496594565142 -1029.651062681959 -776.1574502686823
        86  188.9978708042182 -15963.76422650339 0.02433446291849747 -15963.73989204048 478848.6860661661 478007.5536986672 479621.1034970254 478917.4010028059 347.6310791599871 -1018.924025127025 -767.992759639323
        87  192.559261743412 -15963.76468518333 0.02479301060149152 -15963.73989217273 478735.604324186 477894.5627143711 479517.1197413281 478795.1305168588 350.0479111615109 -1008.015807146023 -759.490807077196
        88  196.2113232406973 -15963.76515553644 0.02526323259237216 -15963.73989230385 478617.9374697133 477777.6510195816 479408.0191394477 478668.1422501107 351.9805134944048 -996.9453529376942 -750.6643127638531
        89  199.9376636687599 -15963.7656354513 0.02574301838351645 -15963.73989243292 478496.5519974953 477657.8428441851 479294.4504525483 478537.3626957526 353.3962294260023 -985.7257509884111 -741.5340613054148
        90  203.7221064030784 -15963.76612284428 0.02623028515003387 -15963.73989255913 478372.4684384611 477535.4341723155 479177.9413265824 478404.0298164854 354.3062191746811 -974.3806246260687 -732.1379964894934
        91  207.5487240519595 -15963.76661566642 0.0267229821570622 -15963.73989268426 478245.9764413313 477411.0771267387 479058.6952630999 478268.1569341551 354.6980249027636 -962.9463173426527 -722.4891177509576
        92  211.4018521273802 -15963.76711189919 0.02721909251995976 -15963.73989280667 478117.7591040473 477285.6617129786 478937.0979071935 478130.5176919695 354.5566120003099 -951.4390337667911 -712.6156701054101
        93  215.2661472088445 -15963.76760956647 0.02771664069320578 -15963.73989292578 477988.1035387149 477159.3586173539 478813.5559040664 477991.3960947245 353.8540162758764 -939.8799683574448 -702.5627310684959
        94  219.126661310038 -15963.76810674317 0.02821370204549554 -15963.73989304112 477857.6156275414 477032.8743593846 478688.5682839283 477851.4042393115 352.5769301480442 -928.2923569580438 -692.3612880617574
        95  222.9688913250428 -15963.76860156175 0.0287084092261988 -15963.73989315252 477726.9763603537 476906.9400275977 478562.8520593688 477711.1369940943 350.720799520307 -916.6997354012989 -682.0470325744471
        96  226.7788380138028 -15963.76909221937 0.02919895976004647 -15963.73989325961 477597.145839066 476781.7827435207 478438.4855188117 477571.1692548654 348.326433738805 -905.1068599958923 -671.6803748611467
        97  230.5430349957453 -15963.7695769812 0.02968361978021086 -15963.73989336142 477468.5352197275 476658.2985652534 478315.253632975 477432.0534609542 345.3593611165941 -893.5404224216977 -661.2641195166927
        98  234.2485520778552 -15963.77005418496 0.03016072445681258 -15963.73989346051 477341.8813591892 476538.1440930036 478193.1787172288 477294.3212673353 341.7893196064012 -882.017524239829 -650.82718439981
        99  237.8829981354293 -15963.77052223315 0.03062867836783275 -15963.73989355478 477217.3005824893 476420.7551567936 478072.6324952572 477158.5140954171 337.6007481037837 -870.5345065072181 -640.3989640162564
       100  241.4345593057705 -15963.77097960346 0.03108596041675049 -15963.73989364304 477095.2445081382 476306.0939401644 477954.3934197612 477025.2461644889 332.8065097916772 -859.1030659940295 -630.0091160393232
Loop time of 6.45356 on 1 procs for 100 steps with 256 atoms

Performance: 1.339 ns/day, 17.927 hours/ns, 15.495 timesteps/s, 3.967 katom-step/s
98.7% CPU use with 1 MPI tasks x 1 OpenMP threads

MPI task timing breakdown:
Section |  min time  |  avg time  |  max time  |%varavg| %total
---------------------------------------------------------------
Pair    | 6.4496     | 6.4496     | 6.4496     |   0.0 | 99.94
Neigh   | 0          | 0          | 0          |   0.0 |  0.00
Comm    | 0.00042022 | 0.00042022 | 0.00042022 |   0.0 |  0.01
Output  | 0.0022677  | 0.0022677  | 0.0022677  |   0.0 |  0.04
Modify  | 0.00096083 | 0.00096083 | 0.00096083 |   0.0 |  0.01
Other   |            | 0.0002704  |            |       |  0.00

Nlocal:            256 ave         256 max         256 min
Histogram: 1 0 0 0 0 0 0 0 0 0
Nghost:            843 ave         843 max         843 min
Histogram: 1 0 0 0 0 0 0 0 0 0
Neighs:           5376 ave        5376 max        5376 min
Histogram: 1 0 0 0 0 0 0 0 0 0
FullNghs:        10752 ave       10752 max       10752 min
Histogram: 1 0 0 0 0 0 0 0 0 0

Total # of neighbors = 10752
Ave neighs/atom = 42
Neighbor list builds = 0
Dangerous builds = 0
Total wall time: 0:00:06
