30
Lattice="5.75041007996 0.0 0.0 0.0 4.69518995285 0.0 0.0 0.0 39.8400001526" Properties=species:S:1:pos:R:3:forces:R:3 energy=-345.928661 stress="-9145.630000000001 0.0 4495.89 0.0 -8704.09 0.0 4495.89 0.0 4121.84"
Ta 0.9892 0.0 2.7203 -0.037192 0.0 -0.008535
Ta 0.00727 2.34759 4.07239 0.046799 0.0 0.059571
Ta 2.88247 2.34759 4.07239 0.046799 0.0 0.059571
Ta 0.17997 0.0 0.18449 0.009422 0.0 -0.012097
Ta 3.05517 0.0 0.18449 0.009422 0.0 -0.012097
Ta 1.87083 2.34759 1.32776 -0.005981 0.0 0.006654
Ta 4.74604 2.34759 1.32776 -0.005981 0.0 0.006654
Ta 3.86441 0.0 2.7203 -0.037192 0.0 -0.008535
Ta 0.94648 2.34759 6.77133 -0.141158 0.0 0.065062
Ta 0.00117 0.0 8.1367 -0.005041 0.0 -0.535781
Ta 2.87637 0.0 8.1367 -0.005041 0.0 -0.535781
Ta 1.91123 0.0 5.41489 0.047966 0.0 0.052967
Ta 4.78644 0.0 5.41489 0.047966 0.0 0.052967
Ta 3.82169 2.34759 6.77133 -0.141158 0.0 0.065062
Ta 1.9168 2.34759 9.48769 -0.807767 0.0 -0.37656
Ta 4.79201 2.34759 9.48769 -0.807767 0.0 -0.37656
Ta 3.25739 0.0 10.83871 0.80662 0.0 0.413175
Ta 2.31209 2.34759 12.20409 0.049763 0.0 0.478936
Ta 5.18729 2.34759 12.20409 0.049763 0.0 0.478936
Ta 0.38219 0.0 10.83871 0.80662 0.0 0.413175
Ta 3.25129 2.34759 14.90296 -0.059966 0.0 -0.070617
Ta 2.26936 0.0 16.25507 -0.058332 0.0 -0.070148
Ta 5.14456 0.0 16.25507 -0.058332 0.0 -0.070148
Ta 4.26294 2.34759 17.64762 0.034688 0.0 0.021628
Ta 1.38774 2.34759 17.64762 0.034688 0.0 0.021628
Ta 4.22253 0.0 13.56045 0.107399 0.0 -0.061704
Ta 1.34733 0.0 13.56045 0.107399 0.0 -0.061704
Ta 0.37609 2.34759 14.90296 -0.059966 0.0 -0.070617
Ta 3.0786 0.0 18.79091 0.01278 0.0 0.037448
Ta 0.2034 0.0 18.79091 0.01278 0.0 0.037448
