30
Lattice="5.75041007996 0.0 0.0 0.0 4.69518995285 0.0 0.0 0.0 39.8400001526" Properties=species:S:1:pos:R:3:forces:R:3 energy=-345.164602 stress="-11863.390000000001 0.0 -2699.1299999999997 0.0 -8952.85 0.0 -2699.1299999999997 0.0 -224.73000000000002"
Ta 0.9892 0.0 2.67528 0.007638 0.0 0.001035
Ta 0.00727 2.34759 4.02882 0.030305 0.0 -0.001775
Ta 2.88247 2.34759 4.02882 0.030305 0.0 -0.001775
Ta 0.17997 0.0 0.13405 0.029187 0.0 -0.000966
Ta 3.05517 0.0 0.13405 0.029187 0.0 -0.000966
Ta 1.87083 2.34759 1.27454 -0.02274 0.0 0.00023
Ta 4.74604 2.34759 1.27454 -0.02274 0.0 0.00023
Ta 3.86441 0.0 2.67528 0.007638 0.0 0.001035
Ta 0.94648 2.34759 6.72231 -0.027764 0.0 -0.000181
Ta 0.00117 0.0 8.09205 0.529066 0.0 -0.000552
Ta 2.87637 0.0 8.09205 0.529066 0.0 -0.000552
Ta 1.91123 0.0 5.3597 -0.091215 0.0 -0.000447
Ta 4.78644 0.0 5.3597 -0.091215 0.0 -0.000447
Ta 3.82169 2.34759 6.72231 -0.027764 0.0 -0.000181
Ta 1.9168 2.34759 9.39558 -0.613631 0.0 -0.000278
Ta 4.79201 2.34759 9.39558 -0.613631 0.0 -0.000278
Ta 2.39483 0.0 10.92856 0.685544 0.0 -0.000982
Ta 1.44952 2.34759 12.2419 -0.636467 0.0 0.000459
Ta 4.32472 2.34759 12.2419 -0.636467 0.0 0.000459
Ta 5.27004 0.0 10.92856 0.685544 0.0 -0.000982
Ta 2.38873 2.34759 14.96563 0.083017 0.0 0.000884
Ta 1.4068 0.0 16.30385 -0.037081 0.0 0.000794
Ta 4.282 0.0 16.30385 -0.037081 0.0 0.000794
Ta 3.40038 2.34759 17.71704 0.037388 0.0 0.000623
Ta 0.52518 2.34759 17.71704 0.037388 0.0 0.000623
Ta 3.35997 0.0 13.62371 0.068589 0.0 -0.000292
Ta 0.48477 0.0 13.62371 0.068589 0.0 -0.000292
Ta 5.26394 2.34759 14.96563 0.083017 0.0 0.000884
Ta 2.21604 0.0 18.85233 -0.041835 0.0 0.001449
Ta 5.09124 0.0 18.85233 -0.041835 0.0 0.001449
