30
Lattice="5.75041007996 0.0 0.0 0.0 4.69518995285 0.0 0.0 0.0 39.8400001526" Properties=species:S:1:pos:R:3:forces:R:3 energy=-344.91356 stress="-9331.87 0.0 -3483.6 0.0 -3070.65 0.0 -3483.6 0.0 10023.91"
Ta 0.9892 0.0 2.7203 0.020761 0.0 0.069829
Ta 0.00727 2.34759 4.07239 0.031416 0.0 0.042888
Ta 2.88247 2.34759 4.07239 0.031416 0.0 0.042888
Ta 0.17997 0.0 0.18449 0.008231 0.0 -0.040672
Ta 3.05517 0.0 0.18449 0.008231 0.0 -0.040672
Ta 1.87083 2.34759 1.32776 -0.006968 0.0 -0.013357
Ta 4.74604 2.34759 1.32776 -0.006968 0.0 -0.013357
Ta 3.86441 0.0 2.7203 0.020761 0.0 0.069829
Ta 0.94648 2.34759 6.77133 -0.012614 0.0 0.0322
Ta 0.00117 0.0 8.1367 0.6286 0.0 -0.362527
Ta 2.87637 0.0 8.1367 0.6286 0.0 -0.362527
Ta 1.91123 0.0 5.41489 -0.117602 0.0 -0.047411
Ta 4.78644 0.0 5.41489 -0.117602 0.0 -0.047411
Ta 3.82169 2.34759 6.77133 -0.012614 0.0 0.0322
Ta 1.9168 2.34759 9.48769 -0.731669 0.0 -1.341165
Ta 4.79201 2.34759 9.48769 -0.731669 0.0 -1.341165
Ta 2.39483 0.0 10.83871 0.796655 0.0 1.335154
Ta 1.44952 2.34759 12.20409 -0.719661 0.0 0.218469
Ta 4.32472 2.34759 12.20409 -0.719661 0.0 0.218469
Ta 5.27004 0.0 10.83871 0.796655 0.0 1.335154
Ta 2.38873 2.34759 14.90296 0.115505 0.0 0.057838
Ta 1.4068 0.0 16.25507 -0.048364 0.0 -0.136512
Ta 4.282 0.0 16.25507 -0.048364 0.0 -0.136512
Ta 3.40038 2.34759 17.64762 0.008342 0.0 0.049918
Ta 0.52518 2.34759 17.64762 0.008342 0.0 0.049918
Ta 3.35997 0.0 13.56045 0.043395 0.0 0.085984
Ta 0.48477 0.0 13.56045 0.043395 0.0 0.085984
Ta 5.26394 2.34759 14.90296 0.115505 0.0 0.057838
Ta 2.21604 0.0 18.79091 -0.016029 0.0 0.049364
Ta 5.09124 0.0 18.79091 -0.016029 0.0 0.049364
