30
Lattice="5.75041007996 0.0 0.0 0.0 4.69518995285 0.0 0.0 0.0 39.8400001526" Properties=species:S:1:pos:R:3:forces:R:3 energy=-346.367123 stress="-9925.11 0.0 -4252.58 0.0 -9690.35 0.0 -4252.58 0.0 528.8000000000001"
Ta 0.9892 0.0 2.7203 0.036893 0.0 0.011121
Ta 0.00727 2.34759 4.07239 0.003739 0.0 -0.008403
Ta 2.88247 2.34759 4.07239 0.003739 0.0 -0.008403
Ta 0.17997 0.0 0.18449 0.001677 0.0 -0.008529
Ta 3.05517 0.0 0.18449 0.001677 0.0 -0.008529
Ta 1.87083 2.34759 1.32776 -0.006125 0.0 -0.007305
Ta 4.74604 2.34759 1.32776 -0.006125 0.0 -0.007305
Ta 3.86441 0.0 2.7203 0.036893 0.0 0.011121
Ta 0.94648 2.34759 6.77133 0.047105 0.0 -0.045187
Ta 0.00117 0.0 8.1367 0.149771 0.0 0.043481
Ta 2.87637 0.0 8.1367 0.149771 0.0 0.043481
Ta 1.91123 0.0 5.41489 -0.082659 0.0 0.037224
Ta 4.78644 0.0 5.41489 -0.082659 0.0 0.037224
Ta 3.82169 2.34759 6.77133 0.047105 0.0 -0.045187
Ta 1.9168 2.34759 9.48769 0.609504 0.0 -0.160261
Ta 4.79201 2.34759 9.48769 0.609504 0.0 -0.160261
Ta 1.24475 0.0 10.83871 -0.628777 0.0 0.151816
Ta 0.29944 2.34759 12.20409 -0.151337 0.0 -0.040462
Ta 3.17464 2.34759 12.20409 -0.151337 0.0 -0.040462
Ta 4.11996 0.0 10.83871 -0.628777 0.0 0.151816
Ta 1.23865 2.34759 14.90296 0.077509 0.0 -0.040594
Ta 0.25672 0.0 16.25507 0.005483 0.0 -0.00975
Ta 3.13192 0.0 16.25507 0.005483 0.0 -0.00975
Ta 2.25029 2.34759 17.64762 -0.026269 0.0 0.012323
Ta 5.1255 2.34759 17.64762 -0.026269 0.0 0.012323
Ta 2.20989 0.0 13.56045 -0.027306 0.0 0.063713
Ta 5.0851 0.0 13.56045 -0.027306 0.0 0.063713
Ta 4.11386 2.34759 14.90296 0.077509 0.0 -0.040594
Ta 1.06595 0.0 18.79091 -0.009208 0.0 0.000812
Ta 3.94116 0.0 18.79091 -0.009208 0.0 0.000812
