30
Lattice="5.75041007996 0.0 0.0 0.0 4.69518995285 0.0 0.0 0.0 39.8400001526" Properties=species:S:1:pos:R:3:forces:R:3 energy=-345.594794 stress="-11819.76 0.0 1952.92 0.0 -9519.769999999999 0.0 1952.92 0.0 -130.88"
Ta 0.9892 0.0 2.68665 -0.031396 0.0 0.000256
Ta 0.00727 2.34759 4.04268 0.07751 0.0 -0.000764
Ta 2.88247 2.34759 4.04268 0.07751 0.0 -0.000764
Ta 0.17997 0.0 0.14906 0.014641 0.0 -0.00412
Ta 3.05517 0.0 0.14906 0.014641 0.0 -0.00412
Ta 1.87083 2.34759 1.29212 -0.010131 0.0 -0.002448
Ta 4.74604 2.34759 1.29212 -0.010131 0.0 -0.002448
Ta 3.86441 0.0 2.68665 -0.031396 0.0 0.000256
Ta 0.94648 2.34759 6.73839 -0.134831 0.0 0.001428
Ta 0.00117 0.0 8.07155 0.239952 0.0 0.002962
Ta 2.87637 0.0 8.07155 0.239952 0.0 0.002962
Ta 1.91123 0.0 5.38052 -0.030029 0.0 -0.000509
Ta 4.78644 0.0 5.38052 -0.030029 0.0 -0.000509
Ta 3.82169 2.34759 6.73839 -0.134831 0.0 0.001428
Ta 1.9168 2.34759 9.43202 -0.708973 0.0 0.000446
Ta 4.79201 2.34759 9.43202 -0.708973 0.0 0.000446
Ta 2.96987 0.0 10.89606 0.708813 0.0 0.000528
Ta 2.02457 2.34759 12.26428 -0.203649 0.0 0.002064
Ta 4.89977 2.34759 12.26428 -0.203649 0.0 0.002064
Ta 0.09467 0.0 10.89606 0.708813 0.0 0.000528
Ta 2.96377 2.34759 14.9433 0.014742 0.0 -0.000587
Ta 1.98184 0.0 16.28932 -0.077212 0.0 0.001835
Ta 4.85704 0.0 16.28932 -0.077212 0.0 0.001835
Ta 3.97542 2.34759 17.69607 0.052551 0.0 -9.3e-05
Ta 1.10022 2.34759 17.69607 0.052551 0.0 -9.3e-05
Ta 3.93501 0.0 13.59778 0.097817 0.0 0.000127
Ta 1.05981 0.0 13.59778 0.097817 0.0 0.000127
Ta 0.08857 2.34759 14.9433 0.014742 0.0 -0.000587
Ta 2.79108 0.0 18.83554 -0.009805 0.0 -0.001124
Ta 5.66629 0.0 18.83554 -0.009805 0.0 -0.001124
