30
Lattice="5.75041007996 0.0 0.0 0.0 4.69518995285 0.0 0.0 0.0 39.8400001526" Properties=species:S:1:pos:R:3:forces:R:3 energy=-345.98566 stress="-11481.859999999999 0.0 3919.02 0.0 -10708.259999999998 0.0 3919.02 0.0 -234.91"
Ta 0.9892 0.0 2.69672 -0.042372 0.0 -0.001938
Ta 0.00727 2.34759 4.05296 0.05908 0.0 0.000592
Ta 2.88247 2.34759 4.05296 0.05908 0.0 0.000592
Ta 0.17997 0.0 0.16008 0.012695 0.0 0.000742
Ta 3.05517 0.0 0.16008 0.012695 0.0 0.000742
Ta 1.87083 2.34759 1.30375 -0.006266 0.0 -0.00108
Ta 4.74604 2.34759 1.30375 -0.006266 0.0 -0.00108
Ta 3.86441 0.0 2.69672 -0.042372 0.0 -0.001938
Ta 0.94648 2.34759 6.75108 -0.115544 0.0 0.001071
Ta 0.00117 0.0 8.08344 0.015442 0.0 7e-06
Ta 2.87637 0.0 8.08344 0.015442 0.0 7e-06
Ta 1.91123 0.0 5.39189 0.017023 0.0 -0.000768
Ta 4.78644 0.0 5.39189 0.017023 0.0 -0.000768
Ta 3.82169 2.34759 6.75108 -0.115544 0.0 0.001071
Ta 1.9168 2.34759 9.45911 -0.69384 0.0 0.000691
Ta 4.79201 2.34759 9.45911 -0.69384 0.0 0.000691
Ta 3.25739 0.0 10.86943 0.687279 0.0 -0.000892
Ta 2.31209 2.34759 12.25603 0.025406 0.0 0.001977
Ta 5.18729 2.34759 12.25603 0.025406 0.0 0.001977
Ta 0.38219 0.0 10.86943 0.687279 0.0 -0.000892
Ta 3.25129 2.34759 14.92962 -0.021568 0.0 -0.000155
Ta 2.26936 0.0 16.27869 -0.069625 0.0 6e-05
Ta 5.14456 0.0 16.27869 -0.069625 0.0 6e-05
Ta 4.26294 2.34759 17.67903 0.042589 0.0 -0.000517
Ta 1.38774 2.34759 17.67903 0.042589 0.0 -0.000517
Ta 4.22253 0.0 13.58337 0.088627 0.0 -0.000326
Ta 1.34733 0.0 13.58337 0.088627 0.0 -0.000326
Ta 0.37609 2.34759 14.92962 -0.021568 0.0 -0.000155
Ta 3.0786 0.0 18.82016 0.001073 0.0 0.000537
Ta 0.2034 0.0 18.82016 0.001073 0.0 0.000537
