30
Lattice="5.75041007996 0.0 0.0 0.0 4.69518995285 0.0 0.0 0.0 39.8400001526" Properties=species:S:1:pos:R:3:forces:R:3 energy=-346.393931 stress="-9438.37 0.0 3529.1 0.0 -11318.58 0.0 3529.1 0.0 1838.01"
Ta 0.9892 0.0 2.7203 -0.028288 0.0 -0.004272
Ta 0.00727 2.34759 4.07239 0.01665 0.0 0.029245
Ta 2.88247 2.34759 4.07239 0.01665 0.0 0.029245
Ta 0.17997 0.0 0.18449 0.006746 0.0 -0.001633
Ta 3.05517 0.0 0.18449 0.006746 0.0 -0.001633
Ta 1.87083 2.34759 1.32776 -0.000473 0.0 -3e-05
Ta 4.74604 2.34759 1.32776 -0.000473 0.0 -3e-05
Ta 3.86441 0.0 2.7203 -0.028288 0.0 -0.004272
Ta 0.94648 2.34759 6.77133 -0.081349 0.0 0.034571
Ta 0.00117 0.0 8.1367 -0.101274 0.0 -0.252924
Ta 2.87637 0.0 8.1367 -0.101274 0.0 -0.252924
Ta 1.91123 0.0 5.41489 0.063888 0.0 0.002877
Ta 4.78644 0.0 5.41489 0.063888 0.0 0.002877
Ta 3.82169 2.34759 6.77133 -0.081349 0.0 0.034571
Ta 1.9168 2.34759 9.48769 -0.523826 0.0 -0.065241
Ta 4.79201 2.34759 9.48769 -0.523826 0.0 -0.065241
Ta 3.54491 0.0 10.83871 0.531471 0.0 0.075625
Ta 2.59961 2.34759 12.20409 0.108678 0.0 0.237898
Ta 5.47481 2.34759 12.20409 0.108678 0.0 0.237898
Ta 0.66971 0.0 10.83871 0.531471 0.0 0.075625
Ta 3.53881 2.34759 14.90296 -0.061771 0.0 -0.016484
Ta 2.55688 0.0 16.25507 -0.022115 0.0 -0.025346
Ta 5.43208 0.0 16.25507 -0.022115 0.0 -0.025346
Ta 4.55046 2.34759 17.64762 0.021554 0.0 0.004745
Ta 1.67526 2.34759 17.64762 0.021554 0.0 0.004745
Ta 4.51005 0.0 13.56045 0.060372 0.0 -0.032886
Ta 1.63485 0.0 13.56045 0.060372 0.0 -0.032886
Ta 0.66361 2.34759 14.90296 -0.061771 0.0 -0.016484
Ta 3.36612 0.0 18.79091 0.009737 0.0 0.013855
Ta 0.49092 0.0 18.79091 0.009737 0.0 0.013855
