30
Lattice="5.75041007996 0.0 0.0 0.0 4.69518995285 0.0 0.0 0.0 39.8400001526" Properties=species:S:1:pos:R:3:forces:R:3 energy=-346.396186 stress="-10475.46 0.0 3307.63 0.0 -12303.68 0.0 3307.63 0.0 -222.97"
Ta 0.9892 0.0 2.7089 -0.03377 0.0 0.000745
Ta 0.00727 2.34759 4.06352 0.026744 0.0 -0.000861
Ta 2.88247 2.34759 4.06352 0.026744 0.0 -0.000861
Ta 0.17997 0.0 0.17306 0.009028 0.0 8.9e-05
Ta 3.05517 0.0 0.17306 0.009028 0.0 8.9e-05
Ta 1.87083 2.34759 1.31619 -0.000498 0.0 -6.9e-05
Ta 4.74604 2.34759 1.31619 -0.000498 0.0 -6.9e-05
Ta 3.86441 0.0 2.7089 -0.03377 0.0 0.000745
Ta 0.94648 2.34759 6.76338 -0.065394 0.0 0.000752
Ta 0.00117 0.0 8.1099 -0.098249 0.0 -0.002005
Ta 2.87637 0.0 8.1099 -0.098249 0.0 -0.002005
Ta 1.91123 0.0 5.40302 0.044662 0.0 -0.00054
Ta 4.78644 0.0 5.40302 0.044662 0.0 -0.00054
Ta 3.82169 2.34759 6.76338 -0.065394 0.0 0.000752
Ta 1.9168 2.34759 9.48192 -0.476879 0.0 0.000537
Ta 4.79201 2.34759 9.48192 -0.476879 0.0 0.000537
Ta 3.54491 0.0 10.84588 0.484374 0.0 -0.000329
Ta 2.59961 2.34759 12.23162 0.102585 0.0 0.000934
Ta 5.47481 2.34759 12.23162 0.102585 0.0 0.000934
Ta 0.66971 0.0 10.84588 0.484374 0.0 -0.000329
Ta 3.53881 2.34759 14.91622 -0.038582 0.0 0.000491
Ta 2.55688 0.0 16.2663 -0.029184 0.0 8.5e-05
Ta 5.43208 0.0 16.2663 -0.029184 0.0 8.5e-05
Ta 4.55046 2.34759 17.66134 0.026269 0.0 -0.000704
Ta 1.67526 2.34759 17.66134 0.026269 0.0 -0.000704
Ta 4.51005 0.0 13.57023 0.044788 0.0 0.000159
Ta 1.63485 0.0 13.57023 0.044788 0.0 0.000159
Ta 0.66361 2.34759 14.91622 -0.038582 0.0 0.000491
Ta 3.36612 0.0 18.80388 0.004104 0.0 0.000717
Ta 0.49092 0.0 18.80388 0.004104 0.0 0.000717
