30
Lattice="5.75041007996 0.0 0.0 0.0 4.69518995285 0.0 0.0 0.0 39.8400001526" Properties=species:S:1:pos:R:3:forces:R:3 energy=-345.319406 stress="-11416.52 0.0 -757.17 0.0 -9138.949999999999 0.0 -757.17 0.0 -340.37"
Ta 0.9892 0.0 2.6792 -0.016362 0.0 0.000549
Ta 0.00727 2.34759 4.0346 0.061621 0.0 0.000282
Ta 2.88247 2.34759 4.0346 0.061621 0.0 0.000282
Ta 0.17997 0.0 0.13955 0.017834 0.0 -0.000235
Ta 3.05517 0.0 0.13955 0.017834 0.0 -0.000235
Ta 1.87083 2.34759 1.28166 -0.013104 0.0 -5.3e-05
Ta 4.74604 2.34759 1.28166 -0.013104 0.0 -5.3e-05
Ta 3.86441 0.0 2.6792 -0.016362 0.0 0.000549
Ta 0.94648 2.34759 6.7292 -0.109435 0.0 -0.002041
Ta 0.00117 0.0 8.07884 0.457863 0.0 0.000169
Ta 2.87637 0.0 8.07884 0.457863 0.0 0.000169
Ta 1.91123 0.0 5.36942 -0.062934 0.0 -0.000236
Ta 4.78644 0.0 5.36942 -0.062934 0.0 -0.000236
Ta 3.82169 2.34759 6.7292 -0.109435 0.0 -0.002041
Ta 1.9168 2.34759 9.41051 -0.711692 0.0 0.000101
Ta 4.79201 2.34759 9.41051 -0.711692 0.0 0.000101
Ta 2.68235 0.0 10.91706 0.761406 0.0 -0.00084
Ta 1.73705 2.34759 12.25543 -0.48479 0.0 0.001087
Ta 4.61225 2.34759 12.25543 -0.48479 0.0 0.001087
Ta 5.55756 0.0 10.91706 0.761406 0.0 -0.00084
Ta 2.67625 2.34759 14.95587 0.044573 0.0 0.001069
Ta 1.69432 0.0 16.29727 -0.054726 0.0 0.000221
Ta 4.56952 0.0 16.29727 -0.054726 0.0 0.000221
Ta 3.6879 2.34759 17.70919 0.045804 0.0 -0.000493
Ta 0.8127 2.34759 17.70919 0.045804 0.0 -0.000493
Ta 3.64749 0.0 13.61175 0.101011 0.0 0.001537
Ta 0.77229 0.0 13.61175 0.101011 0.0 0.001537
Ta 5.55146 2.34759 14.95587 0.044573 0.0 0.001069
Ta 2.50356 0.0 18.84582 -0.037068 0.0 -0.001117
Ta 5.37876 0.0 18.84582 -0.037068 0.0 -0.001117
