30
Lattice="5.75041007996 0.0 0.0 0.0 4.69518995285 0.0 0.0 0.0 39.8400001526" Properties=species:S:1:pos:R:3:forces:R:3 energy=-346.582565 stress="-9596.72 0.0 -296.27 0.0 -12032.57 0.0 -296.27 0.0 -26.450000000000003"
Ta 0.9892 0.0 2.71997 0.001254 0.0 -0.000998
Ta 0.00727 2.34759 4.07216 0.002375 0.0 -0.000846
Ta 2.88247 2.34759 4.07216 0.002375 0.0 -0.000846
Ta 0.17997 0.0 0.18409 0.004062 0.0 -0.001188
Ta 3.05517 0.0 0.18409 0.004062 0.0 -0.001188
Ta 1.87083 2.34759 1.32736 -0.001515 0.0 -0.001063
Ta 4.74604 2.34759 1.32736 -0.001515 0.0 -0.001063
Ta 3.86441 0.0 2.71997 0.001254 0.0 -0.000998
Ta 0.94648 2.34759 6.77121 -0.000474 0.0 -0.000276
Ta 0.00117 0.0 8.13671 0.001992 0.0 -0.000431
Ta 2.87637 0.0 8.13671 0.001992 0.0 -0.000431
Ta 1.91123 0.0 5.41479 0.001951 0.0 -0.000915
Ta 4.78644 0.0 5.41479 0.001951 0.0 -0.000915
Ta 3.82169 2.34759 6.77121 -0.000474 0.0 -0.000276
Ta 1.9168 2.34759 9.48769 0.0 0.0 0.0
Ta 4.79201 2.34759 9.48769 0.0 0.0 0.0
Ta 0.95723 0.0 10.8387 -0.001992 0.0 0.000431
Ta 0.01192 2.34759 12.20421 0.000474 0.0 0.000276
Ta 2.88712 2.34759 12.20421 0.000474 0.0 0.000276
Ta 3.83244 0.0 10.8387 -0.001992 0.0 0.000431
Ta 0.95113 2.34759 14.90319 -0.002375 0.0 0.000846
Ta 5.71961 0.0 16.2554 -0.001254 0.0 0.000998
Ta 2.8444 0.0 16.2554 -0.001254 0.0 0.000998
Ta 1.96277 2.34759 17.64802 0.001515 0.0 0.001063
Ta 4.83798 2.34759 17.64802 0.001515 0.0 0.001063
Ta 1.92237 0.0 13.56055 -0.001951 0.0 0.000915
Ta 4.79758 0.0 13.56055 -0.001951 0.0 0.000915
Ta 3.82634 2.34759 14.90319 -0.002375 0.0 0.000846
Ta 0.77843 0.0 18.79131 -0.004062 0.0 0.001188
Ta 3.65364 0.0 18.79131 -0.004062 0.0 0.001188
