30
Lattice="5.75041007996 0.0 0.0 0.0 4.69518995285 0.0 0.0 0.0 39.8400001526" Properties=species:S:1:pos:R:3:forces:R:3 energy=-345.111657 stress="-8100.32 0.0 -1129.41 0.0 -4564.69 0.0 -1129.41 0.0 8777.64"
Ta 0.9892 0.0 2.7203 -0.002999 0.0 0.02667
Ta 0.00727 2.34759 4.07239 0.054882 0.0 0.061699
Ta 2.88247 2.34759 4.07239 0.054882 0.0 0.061699
Ta 0.17997 0.0 0.18449 -0.00101 0.0 -0.031388
Ta 3.05517 0.0 0.18449 -0.00101 0.0 -0.031388
Ta 1.87083 2.34759 1.32776 0.002281 0.0 -0.002797
Ta 4.74604 2.34759 1.32776 0.002281 0.0 -0.002797
Ta 3.86441 0.0 2.7203 -0.002999 0.0 0.02667
Ta 0.94648 2.34759 6.77133 -0.115569 0.0 0.063165
Ta 0.00117 0.0 8.1367 0.538925 0.0 -0.581219
Ta 2.87637 0.0 8.1367 0.538925 0.0 -0.581219
Ta 1.91123 0.0 5.41489 -0.062838 0.0 0.038873
Ta 4.78644 0.0 5.41489 -0.062838 0.0 0.038873
Ta 3.82169 2.34759 6.77133 -0.115569 0.0 0.063165
Ta 1.9168 2.34759 9.48769 -0.888421 0.0 -1.156719
Ta 4.79201 2.34759 9.48769 -0.888421 0.0 -1.156719
Ta 2.68235 0.0 10.83871 0.933927 0.0 1.205226
Ta 1.73705 2.34759 12.20409 -0.549392 0.0 0.428428
Ta 4.61225 2.34759 12.20409 -0.549392 0.0 0.428428
Ta 5.55756 0.0 10.83871 0.933927 0.0 1.205226
Ta 2.67625 2.34759 14.90296 0.046884 0.0 -0.018316
Ta 1.69432 0.0 16.25507 -0.058853 0.0 -0.140323
Ta 4.56952 0.0 16.25507 -0.058853 0.0 -0.140323
Ta 3.6879 2.34759 17.64762 0.020235 0.0 0.058633
Ta 0.8127 2.34759 17.64762 0.020235 0.0 0.058633
Ta 3.64749 0.0 13.56045 0.091771 0.0 -0.007909
Ta 0.77229 0.0 13.56045 0.091771 0.0 -0.007909
Ta 5.55146 2.34759 14.90296 0.046884 0.0 -0.018316
Ta 2.50356 0.0 18.79091 -0.009823 0.0 0.055977
Ta 5.37876 0.0 18.79091 -0.009823 0.0 0.055977
