30
Lattice="5.75041007996 0.0 0.0 0.0 4.69518995285 0.0 0.0 0.0 39.8400001526" Properties=species:S:1:pos:R:3:forces:R:3 energy=-346.582564 stress="-9591.91 0.0 -296.03000000000003 0.0 -12027.84 0.0 -296.03000000000003 0.0 -17.44"
Ta 0.9892 0.0 2.72001 0.001297 0.0 -0.000868
Ta 0.00727 2.34759 4.07221 0.002338 0.0 -0.000918
Ta 2.88247 2.34759 4.07221 0.002338 0.0 -0.000918
Ta 0.17997 0.0 0.18416 0.004037 0.0 -0.001343
Ta 3.05517 0.0 0.18416 0.004037 0.0 -0.001343
Ta 1.87083 2.34759 1.32742 -0.00151 0.0 -0.00104
Ta 4.74604 2.34759 1.32742 -0.00151 0.0 -0.00104
Ta 3.86441 0.0 2.72001 0.001297 0.0 -0.000868
Ta 0.94648 2.34759 6.77122 -0.000493 0.0 -5.2e-05
Ta 0.00117 0.0 8.13674 0.002006 0.0 -0.000634
Ta 2.87637 0.0 8.13674 0.002006 0.0 -0.000634
Ta 1.91123 0.0 5.41485 0.001966 0.0 -0.001189
Ta 4.78644 0.0 5.41485 0.001966 0.0 -0.001189
Ta 3.82169 2.34759 6.77122 -0.000493 0.0 -5.2e-05
Ta 1.9168 2.34759 9.48769 0.0 0.0 0.0
Ta 4.79201 2.34759 9.48769 0.0 0.0 0.0
Ta 3.83244 0.0 10.83867 -0.002006 0.0 0.000634
Ta 2.88713 2.34759 12.2042 0.000493 0.0 5.2e-05
Ta 0.01192 2.34759 12.2042 0.000493 0.0 5.2e-05
Ta 0.95723 0.0 10.83867 -0.002006 0.0 0.000634
Ta 3.82633 2.34759 14.90314 -0.002338 0.0 0.000918
Ta 2.8444 0.0 16.25536 -0.001297 0.0 0.000868
Ta 5.7196 0.0 16.25536 -0.001297 0.0 0.000868
Ta 4.83798 2.34759 17.64796 0.00151 0.0 0.00104
Ta 1.96278 2.34759 17.64796 0.00151 0.0 0.00104
Ta 4.79758 0.0 13.56049 -0.001966 0.0 0.001189
Ta 1.92238 0.0 13.56049 -0.001966 0.0 0.001189
Ta 0.95113 2.34759 14.90314 -0.002338 0.0 0.000918
Ta 3.65364 0.0 18.79124 -0.004037 0.0 0.001343
Ta 0.77844 0.0 18.79124 -0.004037 0.0 0.001343
