30
Lattice="5.75041007996 0.0 0.0 0.0 4.69518995285 0.0 0.0 0.0 39.8400001526" Properties=species:S:1:pos:R:3:forces:R:3 energy=-346.361714 stress="-10339.27 0.0 -4235.839999999999 0.0 -10300.0 0.0 -4235.839999999999 0.0 -143.8"
Ta 0.9892 0.0 2.71788 0.039491 0.0 -0.003174
Ta 0.00727 2.34759 4.0686 -0.006941 0.0 0.000225
Ta 2.88247 2.34759 4.0686 -0.006941 0.0 0.000225
Ta 0.17997 0.0 0.18084 0.006017 0.0 -0.000536
Ta 3.05517 0.0 0.18084 0.006017 0.0 -0.000536
Ta 1.87083 2.34759 1.32379 -0.009843 0.0 -0.001904
Ta 4.74604 2.34759 1.32379 -0.009843 0.0 -0.001904
Ta 3.86441 0.0 2.71788 0.039491 0.0 -0.003174
Ta 0.94648 2.34759 6.76401 0.031952 0.0 0.001417
Ta 0.00117 0.0 8.13836 0.170121 0.0 0.00142
Ta 2.87637 0.0 8.13836 0.170121 0.0 0.00142
Ta 1.91123 0.0 5.41435 -0.068665 0.0 0.001093
Ta 4.78644 0.0 5.41435 -0.068665 0.0 0.001093
Ta 3.82169 2.34759 6.76401 0.031952 0.0 0.001417
Ta 1.9168 2.34759 9.47269 0.56983 0.0 0.001115
Ta 4.79201 2.34759 9.47269 0.56983 0.0 0.001115
Ta 1.24475 0.0 10.85237 -0.591123 0.0 0.000193
Ta 0.29944 2.34759 12.20261 -0.170693 0.0 -0.00076
Ta 3.17464 2.34759 12.20261 -0.170693 0.0 -0.00076
Ta 4.11996 0.0 10.85237 -0.591123 0.0 0.000193
Ta 1.23865 2.34759 14.90362 0.062003 0.0 -0.000147
Ta 0.25672 0.0 16.25811 0.014238 0.0 6.7e-05
Ta 3.13192 0.0 16.25811 0.014238 0.0 6.7e-05
Ta 2.25029 2.34759 17.65366 -0.022348 0.0 0.000828
Ta 5.1255 2.34759 17.65366 -0.022348 0.0 0.000828
Ta 2.20989 0.0 13.56973 -0.01066 0.0 -0.000183
Ta 5.0851 0.0 13.56973 -0.01066 0.0 -0.000183
Ta 4.11386 2.34759 14.90362 0.062003 0.0 -0.000147
Ta 1.06595 0.0 18.79472 -0.01338 0.0 0.000344
Ta 3.94116 0.0 18.79472 -0.01338 0.0 0.000344
