30
Lattice="5.75041007996 0.0 0.0 0.0 4.69518995285 0.0 0.0 0.0 39.8400001526" Properties=species:S:1:pos:R:3:forces:R:3 energy=-344.984307 stress="-10564.03 0.0 -4829.4 0.0 -2612.55 0.0 -4829.4 0.0 9464.02"
Ta 0.9892 0.0 2.7203 0.037412 0.0 0.099042
Ta 0.00727 2.34759 4.07239 0.028536 0.0 0.023468
Ta 2.88247 2.34759 4.07239 0.028536 0.0 0.023468
Ta 0.17997 0.0 0.18449 0.023555 0.0 -0.042618
Ta 3.05517 0.0 0.18449 0.023555 0.0 -0.042618
Ta 1.87083 2.34759 1.32776 -0.016108 0.0 -0.021017
Ta 4.74604 2.34759 1.32776 -0.016108 0.0 -0.021017
Ta 3.86441 0.0 2.7203 0.037412 0.0 0.099042
Ta 0.94648 2.34759 6.77133 0.046477 0.0 0.002765
Ta 0.00117 0.0 8.1367 0.514609 0.0 -0.283847
Ta 2.87637 0.0 8.1367 0.514609 0.0 -0.283847
Ta 1.91123 0.0 5.41489 -0.163272 0.0 -0.078622
Ta 4.78644 0.0 5.41489 -0.163272 0.0 -0.078622
Ta 3.82169 2.34759 6.77133 0.046477 0.0 0.002765
Ta 1.9168 2.34759 9.48769 -0.094634 0.0 -1.114901
Ta 4.79201 2.34759 9.48769 -0.094634 0.0 -1.114901
Ta 2.10731 0.0 10.83871 0.096153 0.0 1.054366
Ta 1.162 2.34759 12.20409 -0.593943 0.0 0.202897
Ta 4.0372 2.34759 12.20409 -0.593943 0.0 0.202897
Ta 4.98252 0.0 10.83871 0.096153 0.0 1.054366
Ta 2.10121 2.34759 14.90296 0.169155 0.0 0.056551
Ta 1.11928 0.0 16.25507 -0.031734 0.0 -0.113985
Ta 3.99448 0.0 16.25507 -0.031734 0.0 -0.113985
Ta 3.11285 2.34759 17.64762 -0.01565 0.0 0.02811
Ta 0.23765 2.34759 17.64762 -0.01565 0.0 0.02811
Ta 3.07245 0.0 13.56045 0.006275 0.0 0.144107
Ta 0.19725 0.0 13.56045 0.006275 0.0 0.144107
Ta 4.97642 2.34759 14.90296 0.169155 0.0 0.056551
Ta 1.92851 0.0 18.79091 -0.00683 0.0 0.043685
Ta 4.80372 0.0 18.79091 -0.00683 0.0 0.043685
