16000
Lattice="57.4 0.0 0.0 0.0 57.4 0.0 0.0 0.0 57.4" Properties=species:S:1:pos:R:3
Fe 57.3799036857 0.0013920671 0.0464674511
Fe 1.4139175889 1.4551980948 1.473428288
Fe 2.8403388504 57.361067599 57.3876984205
Fe 4.3269146899 1.4862678969 1.3892870964
Fe 5.7900413374 0.0105496541 0.0387740926
Fe 7.1741787113 1.4260737668 1.4123573307
Fe 8.5532321592 57.3738189347 57.3769105925
Fe 10.069208583 1.4455342239 1.4833357192
Fe 11.486658573 0.0280874413 0.0496205572
Fe 12.9470052383 1.4025161863 1.4292741145
Fe 14.3114431153 57.3619143584 0.0108789081
Fe 15.7414252323 1.4766014754 1.4021645126
Fe 17.1940514878 0.0017373373 57.3901737954
Fe 18.6174401845 1.4348041394 1.4837697877
Fe 20.0859354158 0.0086508135 57.367458973
Fe 21.5800558355 1.4370057193 1.4669886071
Fe 22.9819150291 57.3904020503 57.3905613222
Fe 24.3910941662 1.4821180423 1.4387187813
Fe 25.8173263424 0.0454564626 0.0532475767
Fe 27.2531798985 1.4163089658 1.4430201097
Fe 28.6805831369 0.0133679994 57.3470692716
Fe 30.0900944046 1.3968562457 1.4157047183
Fe 31.5790338285 0.0412996367 0.0390892278
Fe 32.9560948712 1.4166446357 1.3858887477
Fe 34.3831989003 0.0059529691 0.0267869795
Fe 35.8871510981 1.4751447772 1.4485712742
Fe 37.2597682087 0.0338413962 0.0479957837
Fe 38.7727852223 1.4848882194 1.4182009865
Fe 40.1699955097 0.0520527237 0.0160512085
Fe 41.6428463616 1.427631247 1.4883255341
Fe 43.0505196668 0.0235280377 57.3945367501
Fe 44.4689750137 1.4176652036 1.4441828121
Fe 45.863034664 57.3648828106 57.3537921869
Fe 47.3863885179 1.4353685972 1.4205753127
Fe 48.7595893543 0.0183857128 0.0273482691
Fe 50.202484233 1.462844658 1.4741107961
Fe 51.7129022002 0.0027849004 0.0075646871
Fe 53.129974157 1.4775790405 1.4119920006
Fe 54.5235937746 0.0311797321 57.3463240265
Fe 55.929244543 1.4056318907 1.4197682231
Fe 0.0439999653 2.8437133905 0.0212634265
Fe 1.3855201854 4.2747170498 1.4751518472
Fe 2.822554031 2.838096283 57.3717267404
Fe 4.3371570279 4.2981587361 1.4822162252
Fe 5.7677308965 2.8669859138 57.3843761152
Fe 7.2139305642 4.3579778517 1.4625622823
Fe 8.5625509597 2.8410857795 57.3498852222
Fe 10.0041896208 4.2517987012 1.4495713062
Fe 11.4549913481 2.8194210758 0.002453262
Fe 12.8753357354 4.2538553174 1.4311354168
Fe 14.3636884165 2.8497839693 57.3732962172
Fe 15.7286293369 4.2982643982 1.4007269227
Fe 17.2392654411 2.8312499454 57.3978035138
Fe 18.6623871925 4.2987989208 1.3801563719
Fe 20.0579328588 2.8600089114 0.0117595506
Fe 21.5806799002 4.3072472868 1.4380401329
Fe 22.9933961839 2.8142523027 57.3711522425
Fe 24.3535994109 4.3263215296 1.4816326102
Fe 25.8018607704 2.9131151328 57.3453019816
Fe 27.3074730063 4.2990884663 1.4043969366
Fe 28.6603423439 2.8540974501 0.0397564981
Fe 30.1846198335 4.3483083756 1.4038984987
Fe 31.5689413653 2.8959295684 0.0396406857
Fe 32.9520464592 4.3352777762 1.4392061787
Fe 34.403235852 2.8175257546 0.0562551211
Fe 35.8529419192 4.3332096958 1.4584042152
Fe 37.2546566835 2.8126708952 57.3844409116
Fe 38.7077529946 4.2995693186 1.4399742084
Fe 40.2030572395 2.848661822 0.003354494
Fe 41.5698640536 4.3171138847 1.474944415
Fe 43.0733359417 2.85558179 57.3636663542
Fe 44.4529093718 4.2758146948 1.3904452789
Fe 45.8850631102 2.8734715636 57.3917283801
Fe 47.3146507848 4.3534807464 1.4153278968
Fe 48.8297478538 2.9058757097 57.3850323432
Fe 50.2723100124 4.2956252343 1.3929822228
Fe 51.6883704167 2.9032597596 0.0518772463
Fe 53.128222392 4.2603773645 1.4926098266
Fe 54.4757569584 2.9130084492 0.0447323848
Fe 55.91840567 4.2886614288 1.4578431646
Fe 57.3793623525 5.6885917144 0.0438656644
Fe 1.4144372401 7.1900744825 1.3941713438
Fe 2.8985633182 5.6962309309 57.352633332
Fe 4.3372500987 7.1588174707 1.4373361419
Fe 5.7321869571 5.7607356808 57.3983728266
Fe 7.2322908441 7.2124475623 1.4225145514
Fe 8.6341794561 5.6840343504 0.0097201718
Fe 9.9981348607 7.1265273877 1.4006795817
Fe 11.4404903242 5.6838823488 0.0564795562
Fe 12.8688665366 7.1266222427 1.4210967658
Fe 14.4031189871 5.702725705 0.0515863715
Fe 15.8026777645 7.1386390603 1.4482444274
Fe 17.2645438995 5.6832788401 57.3953168699
Fe 18.6433895424 7.147263263 1.4273744792
Fe 20.1097776683 5.7764978383 57.3787810774
Fe 21.5082783513 7.1469123337 1.4095373354
Fe 22.9779902224 5.7590338526 57.3478407764
Fe 24.4426725938 7.1734087476 1.4827960685
Fe 25.7774516963 5.7457820124 0.0264499082
Fe 27.2560378396 7.2093553389 1.41143398
Fe 28.6531318554 5.7065515916 57.3810802985
Fe 30.1040443066 7.1875516821 1.4221425259
Fe 31.5464713198 5.7218969614 57.3441739417
Fe 33.0126566526 7.1442116933 1.4779270771
Fe 34.4258400232 5.7266355887 57.3520185147
Fe 35.9275447267 7.150410775 1.3933188342
Fe 37.3424036921 5.7231128499 0.0399440494
Fe 38.7981599393 7.1186640219 1.4823437447
Fe 40.1652005767 5.7645227803 0.0161268057
Fe 41.5985486868 7.1751143816 1.4625001808
Fe 43.0848479853 5.6956634748 0.0089481127
Fe 44.4952207507 7.2142149308 1.41525817
Fe 45.8777814196 5.6907730559 0.0480152041
Fe 47.3875179269 7.1375542704 1.4169562332
Fe 48.7497342198 5.7090148496 0.0387187255
Fe 50.1971264799 7.215290779 1.4418153141
Fe 51.6761734103 5.7424981031 57.374555519
Fe 53.0564035062 7.158832213 1.469854925
Fe 54.5349603492 5.7039526756 0.0339550077
Fe 55.9660522127 7.1491847513 1.4698148222
Fe 0.0115969125 8.5790296356 9.61735367e-04
Fe 1.42299324 9.9929763863 1.3805417686
Fe 2.8965014657 8.5754367025 57.3521405022
Fe 4.2829171131 10.1024321058 1.4181486824
Fe 5.6852588213 8.5956927652 0.0304469739
Fe 7.1378128148 10.0512978187 1.4719406287
Fe 8.5740254005 8.6362513631 0.0543995948
Fe 10.0753034964 9.9969475362 1.4432988939
Fe 11.4378482879 8.6156778489 57.3733784541
Fe 12.951126931 10.0243677847 1.4449618391
Fe 14.4050579088 8.6282456066 0.0138680461
Fe 15.7997536467 10.0924896682 1.4870591149
Fe 17.2012481678 8.6453116312 57.3877687422
Fe 18.605130691 10.0563228513 1.4296734638
Fe 20.0397822959 8.5711198443 8.01259797e-04
Fe 21.5722215144 10.0915185808 1.4363258349
Fe 22.9242228416 8.6587502225 57.3590592552
Fe 24.4000787192 9.9972522519 1.4157935218
Fe 25.8696602591 8.6002344853 0.0280239979
Fe 27.3218570266 10.0307948167 1.4706883218
Fe 28.6937192427 8.6647713696 57.3472906157
Fe 30.1138686728 10.0801221062 1.4083911276
Fe 31.5436645036 8.6258591443 0.0333431724
Fe 32.9669682475 10.0754267675 1.4671767406
Fe 34.4025205538 8.6206657765 57.3984067681
Fe 35.874421647 10.0904296462 1.3788394544
Fe 37.2760165838 8.6328011568 0.0327138614
Fe 38.7005406913 10.0425860158 1.3774098313
Fe 40.2079112811 8.5617277703 57.3685949009
Fe 41.6137405093 10.0127837978 1.3792550284
Fe 43.0449315875 8.5966310711 57.3887566419
Fe 44.5328560908 10.0270866591 1.4237596423
Fe 45.9585236503 8.5717988066 57.3787459419
Fe 47.3745828161 10.1010933218 1.4376687979
Fe 48.7742176899 8.5785729302 0.0456653573
Fe 50.1989012601 10.0965941688 1.4223807891
Fe 51.6993930709 8.5787017425 0.0230830336
Fe 53.1134401438 10.0882632082 1.4788581235
Fe 54.4838798256 8.6092411265 0.023310954
Fe 56.0084346774 10.0503615028 1.4237628545
Fe 0.0083944842 11.4514772919 57.3898484193
Fe 1.4578279758 12.9333388913 1.3807479214
Fe 2.8603700902 11.4938841471 57.3957736077
Fe 4.3116325232 12.9215624537 1.4017227396
Fe 5.7060386398 11.5281249582 57.3922251714
Fe 7.200488679 12.9435106099 1.3925831989
Fe 8.5578050199 11.524420166 57.378603307
Fe 10.0435370018 12.963512105 1.4489917616
Fe 11.5023611554 11.4615076657 57.3573615981
Fe 12.9227590704 12.9675156894 1.4296967407
Fe 14.3188870456 11.4564197964 0.014320451
Fe 15.7777398579 12.9178130716 1.4862803967
Fe 17.2329323802 11.5116089542 0.0030595342
Fe 18.6451952869 12.8628574766 1.4105315842
Fe 20.1060386148 11.450338816 0.003712546
Fe 21.5805155784 12.9387424202 1.4741944683
Fe 22.9594540663 11.5219127453 57.3929509585
Fe 24.3774722094 12.865100065 1.4909470563
Fe 25.8503780933 11.4549429021 57.3769723709
Fe 27.3147081773 12.9250967507 1.4897549899
Fe 28.676214776 11.4574476074 0.0195609854
Fe 30.1722214985 12.9142892638 1.3901912928
Fe 31.5917536969 11.4515174226 57.3540780639
Fe 32.9543099818 12.8634693133 1.4642149825
Fe 34.4665883813 11.5161786651 0.0167663442
Fe 35.8213714981 12.9310222918 1.4366444625
Fe 37.2892849499 11.4536357105 57.3857281308
Fe 38.7392510711 12.9120555886 1.4332736673
Fe 40.2106309419 11.4260177682 57.353033733
Fe 41.6061266416 12.9281739016 1.4232751983
Fe 43.0280763778 11.4379957578 57.3470777393
Fe 44.4660062723 12.8981529033 1.489298517
Fe 45.907100542 11.5186342388 57.3765547182
Fe 47.3306344896 12.9401624261 1.3831318078
Fe 48.7571821223 11.4738704117 57.3627814126
Fe 50.1844095635 12.93442274 1.4376741601
Fe 51.7149012978 11.4635122504 0.0523047949
Fe 53.0765762684 12.9326550386 1.4661267995
Fe 54.5609194549 11.451579594 0.0220901853
Fe 55.9975152477 12.9414575009 1.4440342903
Fe 0.0129356366 14.3237877864 0.0479027594
Fe 1.4647679084 15.7311454623 1.4132578879
Fe 2.8476848464 14.3504944874 57.3936154313
Fe 4.3341186724 15.7413625821 1.4007178281
Fe 5.6905206859 14.3748165307 0.0484926213
Fe 7.1785173135 15.7434115947 1.4471148904
Fe 8.5926921046 14.3693688786 57.3464907215
Fe 9.9960490351 15.8267112431 1.4458771878
Fe 11.4401691222 14.3603382508 0.02344176
Fe 12.8817053771 15.8360998497 1.4769243312
Fe 14.381576331 14.3519450314 0.0205867152
Fe 15.764171541 15.7566664166 1.4304438415
Fe 17.2686950612 14.2926693747 57.370543416
Fe 18.7117864109 15.7516527738 1.4866259173
Fe 20.0523192031 14.3719368998 57.3658691405
Fe 21.5138641105 15.8254495141 1.4491361311
Fe 23.0000168485 14.3224060629 0.0470804294
Fe 24.4224491322 15.7725416557 1.3803548454
Fe 25.871152944 14.3364075598 57.374147418
Fe 27.3119610804 15.760235955 1.4014972465
Fe 28.6712576859 14.3615031769 0.0290163815
Fe 30.1413144878 15.8319810506 1.4814400368
Fe 31.5193537608 14.3221131141 57.3565861458
Fe 33.0615531323 15.7970485823 1.3999956874
Fe 34.405464268 14.3413520615 57.3861970712
Fe 35.8878976494 15.8249588649 1.3836946997
Fe 37.2756189708 14.3054627748 57.3632562245
Fe 38.7117502893 15.8271877468 1.4038296511
Fe 40.1905044529 14.3621009646 57.3860330201
Fe 41.6078155663 15.8133102932 1.4138517027
Fe 43.0066753748 14.340549518 57.3437581939
Fe 44.4805543493 15.757297871 1.4609152479
Fe 45.8662790864 14.4021766841 0.0080781529
Fe 47.3841330933 15.8022094476 1.4437207048
Fe 48.7933758494 14.3532805107 0.0240494814
Fe 50.2237670332 15.8403009262 1.4441997022
Fe 51.6262241354 14.3079198262 0.0307510833
Fe 53.1375564223 15.7804727105 1.3785715915
Fe 54.5859148023 14.3175561983 0.0345462938
Fe 55.937065583 15.7709074674 1.4431266052
Fe 0.0306218372 17.2612158858 57.3423122165
Fe 1.4809657779 18.6260057658 1.3886931957
Fe 2.8194379477 17.2568843934 0.0175988041
Fe 4.3600192093 18.6531150592 1.4514368703
Fe 5.7127963897 17.2657529501 57.3464367674
Fe 7.1868587396 18.7039192445 1.4330503665
Fe 8.5610756789 17.2573384218 0.016403288
Fe 10.0888916376 18.5986350398 1.3847196088
Fe 11.4690820894 17.2370133147 0.0532851109
Fe 12.8811972167 18.6632012532 1.4175360062
Fe 14.400807286 17.262915965 0.0462791231
Fe 15.7808544681 18.6286815716 1.4437765347
Fe 17.258784137 17.260114722 57.3670104365
Fe 18.6131787844 18.6697902577 1.4659794159
Fe 20.0687557201 17.2633165878 0.0224611047
Fe 21.528701012 18.6015223165 1.487905106
Fe 22.9231763804 17.2662254394 0.0459963932
Fe 24.3780534007 18.6311458439 1.4798532493
Fe 25.8314329548 17.2621200298 0.0275586711
Fe 27.219649763 18.6288169498 1.461663654
Fe 28.7346619034 17.2630651026 57.3663860335
Fe 30.1253329815 18.695327457 1.426210241
Fe 31.5229600342 17.2373783619 0.0096630769
Fe 33.0299812364 18.6391235733 1.4664721059
Fe 34.4721306374 17.2474305927 0.0494932743
Fe 35.8389085 18.707733991 1.3890414722
Fe 37.3369306466 17.1999823481 0.0334984082
Fe 38.7634808106 18.6555017552 1.4004850657
Fe 40.1612853042 17.2034692131 0.0446554197
Fe 41.5916729611 18.6555075829 1.4241422641
Fe 43.093960617 17.1949158875 57.3902916894
Fe 44.4926066917 18.6902580615 1.3918344431
Fe 45.9096624589 17.2572918049 0.0343771721
Fe 47.3736132256 18.6041099486 1.4574668964
Fe 48.8096172826 17.1915759375 0.0307216202
Fe 50.2301003698 18.684736683 1.383274459
Fe 51.6248616119 17.2637150064 0.0324006835
Fe 53.0477865355 18.693515692 1.4417816201
Fe 54.5234240778 17.1947334041 57.3965199026
Fe 55.9543334261 18.6905894967 1.3786888019
Fe 57.3928672242 20.0337432133 0.015465739
Fe 1.4532737625 21.48431412 1.407374195
Fe 2.8251214138 20.1316276245 0.0557318834
Fe 4.2672112789 21.504707466 1.487554287
Fe 5.741583832 20.11552541 57.3741503686
Fe 7.1445310565 21.4715076903 1.3833273197
Fe 8.6573208092 20.0964427734 57.3652004462
Fe 10.0227082307 21.5009235235 1.4085846212
Fe 11.5102976082 20.0813499957 57.398015742
Fe 12.8594249285 21.4836548129 1.4879201315
Fe 14.3272567296 20.0747629053 57.3963444023
Fe 15.7894222431 21.4796208159 1.4238896746
Fe 17.2674333269 20.0536224917 0.0397570158
Fe 18.6253987533 21.5290085752 1.4403649004
Fe 20.0928006723 20.1111888669 0.0168037166
Fe 21.5591137416 21.5072244825 1.3895490644
Fe 22.9345085267 20.1035626916 57.3648026075
Fe 24.4038565837 21.5023396099 1.4689013832
Fe 25.8283772026 20.0875574649 57.3626777642
Fe 27.210082242 21.4779885041 1.3952768948
Fe 28.7115378135 20.1122003355 0.0398720826
Fe 30.1050701403 21.5363026086 1.4054463356
Fe 31.582767441 20.1060661693 0.0227200587
Fe 32.99666144 21.5262867208 1.3780672193
Fe 34.4466985868 20.0587834494 57.3470831458
Fe 35.8633113905 21.5802596872 1.4914149996
Fe 37.2791519673 20.1420479089 0.0241684494
Fe 38.7325425714 21.5497031869 1.4756148381
Fe 40.1299593081 20.0589327965 0.0061105671
Fe 41.5902307975 21.490294005 1.448772072
Fe 43.0364971556 20.1253611358 57.3719345826
Fe 44.4427595098 21.4829797418 1.416886093
Fe 45.8843216473 20.0980974249 57.396733889
Fe 47.381820543 21.5725988093 1.4874350293
Fe 48.7416090378 20.0607044347 57.3783648603
Fe 50.2262339032 21.5104600985 1.4099042192
Fe 51.6255630834 20.1013081287 57.39838002
Fe 53.0486166059 21.5065370318 1.4135227089
Fe 54.5440116652 20.0668043367 57.3608372177
Fe 56.0149198455 21.4881318801 1.3810312111
Fe 57.3908195797 22.9648564233 0.0162980352
Fe 1.4923474115 24.3837503242 1.4703757626
Fe 2.8869192467 22.9125186593 57.3753690086
Fe 4.3438607734 24.3813644317 1.3996960125
Fe 5.7905255027 22.9815846729 57.3747369318
Fe 7.1722654478 24.341089512 1.4190975462
Fe 8.5822607325 22.9665241235 57.3911454554
Fe 10.001276845 24.3399261369 1.4579929049
Fe 11.4598995528 22.9154049266 57.3718608753
Fe 12.9239142643 24.4434031778 1.4052566581
Fe 14.3818276891 22.9401224107 57.3621074167
Fe 15.839980089 24.4041766462 1.4596809093
Fe 17.2099088867 22.9724004136 57.3711155996
Fe 18.6352899457 24.3645771632 1.3899708342
Fe 20.0874402321 22.9544421042 0.0117644342
Fe 21.5643029706 24.418739587 1.4863128525
Fe 23.0085640358 22.9406113468 57.3633436785
Fe 24.3385650173 24.3578762151 1.3776757856
Fe 25.7750470949 22.9722130018 57.3520367955
Fe 27.2646243246 24.3527785158 1.4199989956
Fe 28.7488222386 22.965881222 0.0186741896
Fe 30.0800635728 24.343581562 1.4902907058
Fe 31.5340279061 22.9383952085 57.3516616811
Fe 33.0467071971 24.3414338741 1.3954460144
Fe 34.4296260312 22.9089582965 57.3970432405
Fe 35.896013988 24.3476129266 1.4720023967
Fe 37.3132115118 22.9316989216 57.3665785203
Fe 38.7681994335 24.4084986556 1.4161654745
Fe 40.2278551886 22.9775823739 57.387982
Fe 41.6177583924 24.4253134545 1.4211531253
Fe 43.0307910343 23.005509427 0.0569489482
Fe 44.4674889129 24.3655143965 1.4487507715
Fe 45.9752921507 22.9263481343 57.3990403628
Fe 47.3925119894 24.3897445364 1.4274028365
Fe 48.7477999609 22.9245745803 0.0202392043
Fe 50.2704701098 24.3770088019 1.436135507
Fe 51.6647504419 22.9527314805 57.3671558929
Fe 53.1007164512 24.4250558909 1.4731060951
Fe 54.5772946077 22.9643845565 57.3852249015
Fe 55.9082704738 24.4420304526 1.4712758901
Fe 57.369971239 25.8564617395 57.3683804877
Fe 1.385529827 27.2779057959 1.3948812637
Fe 2.9117350217 25.8240674305 57.3955549042
Fe 4.3260137069 27.2317553473 1.4902902241
Fe 5.6915071999 25.8850762011 57.3927049909
Fe 7.2031529852 27.2097256331 1.4302734827
Fe 8.6363022742 25.7822396922 57.3969526418
Fe 10.0219921593 27.2079300932 1.3937535421
Fe 11.4430372527 25.8159869647 0.0289497
Fe 12.9551949868 27.2166533587 1.3969263536
Fe 14.3332546912 25.81559799 57.3921428151
Fe 15.8220818442 27.2105027208 1.4360789307
Fe 17.2024707557 25.7796229219 57.3526601064
Fe 18.6983602806 27.213408056 1.4444829358
Fe 20.0408801842 25.8492096438 0.0457566674
Fe 21.5099120271 27.273631292 1.3828633976
Fe 22.974994844 25.7807784657 0.0123067283
Fe 24.3590602848 27.2977601038 1.4073203803
Fe 25.8337461075 25.8214353411 57.3778835387
Fe 27.2937300877 27.2710316793 1.4621251606
Fe 28.6741136469 25.8607065683 0.041879532
Fe 30.157790563 27.281260049 1.4046959618
Fe 31.5999641505 25.8707217318 57.3703985405
Fe 32.9478269873 27.2819402616 1.4581234641
Fe 34.407899462 25.8329657665 57.3615686811
Fe 35.9003713705 27.2837830095 1.4373544479
Fe 37.2751838561 25.8461691889 57.3943511962
Fe 38.7095742239 27.2092176355 1.4621205649
Fe 40.1999723992 25.7817109329 57.3670271163
Fe 41.671756859 27.3128221224 1.488636246
Fe 43.085006801 25.7983614636 0.0538418982
Fe 44.4494938017 27.3026232014 1.4708615275
Fe 45.8696810229 25.8846698529 57.3909070045
Fe 47.3279928142 27.2891471289 1.3852833163
Fe 48.8040096298 25.7761133793 57.352991818
Fe 50.2325163607 27.3122773715 1.380522448
Fe 51.7063631555 25.7831252143 0.0570893804
Fe 53.1439693738 27.2339630236 1.4503621101
Fe 54.5798640416 25.7990649396 57.395153711
Fe 55.9112988855 27.3182598232 1.4629688899
Fe 0.00922208 28.7131556505 57.3987873945
Fe 1.3910553505 30.078072532 1.4875254018
Fe 2.8608675583 28.7304308578 57.3605908832
Fe 4.281498319 30.1555409945 1.4894892202
Fe 5.7935648212 28.7367662987 0.0447571896
Fe 7.2030382046 30.1809445067 1.4783375337
Fe 8.6623346096 28.6436591998 0.0025445477
Fe 10.0438049916 30.1732046877 1.4922085892
Fe 11.4622970266 28.7356535839 57.3782810767
Fe 12.9609400841 30.0880830063 1.4354904249
Fe 14.3454002898 28.7493305507 57.3433736318
Fe 15.7593301012 30.1619832262 1.3975949484
Fe 17.2130016598 28.66779132 0.0434435391
Fe 18.6965188596 30.1251815831 1.4481045854
Fe 20.1295688634 28.6759616497 57.3724380818
Fe 21.5793452091 30.1894079162 1.4533243645
Fe 22.935891513 28.7512091819 57.3678742838
Fe 24.4396523285 30.1158888492 1.4726172359
Fe 25.8021567487 28.7564151171 0.0108027378
Fe 27.2565645722 30.1920432326 1.4803479399
Fe 28.6870029958 28.6901547984 0.0429798238
Fe 30.1309902819 30.1534457447 1.4866221276
Fe 31.5149394566 28.6792094813 57.3739272434
Fe 33.0071210227 30.1771485042 1.4764208277
Fe 34.4323257614 28.7410403249 57.3838562858
Fe 35.8835473375 30.1925705253 1.4104439366
Fe 37.281918653 28.6893364224 0.0200286678
Fe 38.7137360655 30.1811123822 1.4047079532
Fe 40.1324835527 28.7424445585 0.0060707806
Fe 41.6506118781 30.1423014326 1.4249985901
Fe 43.0279058978 28.7217032993 0.007438264
Fe 44.4965267635 30.1539718663 1.4153016892
Fe 45.8943321062 28.7147295068 57.3637876605
Fe 47.3416528174 30.0790608984 1.4720860099
Fe 48.757494477 28.6893753497 57.3748898387
Fe 50.1738146183 30.1646997661 1.3913018382
Fe 51.6904490177 28.7520035211 0.0284921894
Fe 53.1190785012 30.1015896244 1.3981968715
Fe 54.4847322926 28.6971206819 57.3677868746
Fe 56.0144798281 30.0881647391 1.4848888363
Fe 57.3980519339 31.6098874694 0.0566711226
Fe 1.4598944348 33.0537325754 1.4637162006
Fe 2.8804610895 31.5395508152 57.3537260363
Fe 4.3438823696 33.05489674 1.4662199065
Fe 5.772392042 31.5362461942 0.050494087
Fe 7.1572417245 33.0212719301 1.4764733222
Fe 8.6157280479 31.5678252375 0.0236628693
Fe 10.0949479618 33.0395883827 1.4566899942
Fe 11.4728180127 31.5144091498 57.3843412858
Fe 12.8863653814 32.9545050373 1.4205191144
Fe 14.3523363471 31.5711149639 57.3579396961
Fe 15.7858399772 32.9477781221 1.4749582942
Fe 17.2753727672 31.5564865667 0.0435085791
Fe 18.6007147969 33.0465423783 1.4165888766
Fe 20.0677398057 31.6116128476 57.3862395746
Fe 21.5682202143 33.0217430001 1.4169614557
Fe 23.0074110433 31.5613731432 0.0156916673
Fe 24.3740465288 33.0532013704 1.4737978755
Fe 25.7808208041 31.560926322 0.0138416453
Fe 27.2418452377 32.9910597355 1.481487583
Fe 28.6447557413 31.582910959 0.0477480859
Fe 30.1553987949 32.9638904853 1.4858006766
Fe 31.5943879106 31.611639506 0.0503532798
Fe 33.0017923728 33.0580092381 1.4836175967
Fe 34.4275274607 31.5847108548 57.365118684
Fe 35.8323900683 32.9601211066 1.4519488162
Fe 37.263241706 31.6223448776 57.3496587675
Fe 38.7368531107 33.0026193593 1.4395648214
Fe 40.2207545755 31.5373483326 0.0298355231
Fe 41.6087545133 32.9903411918 1.3860555647
Fe 42.9982754964 31.5158163949 0.0125302372
Fe 44.5053432183 33.0017646092 1.4055724082
Fe 45.9112713317 31.5408979494 0.0020820345
Fe 47.3833461395 33.0536660189 1.4314325118
Fe 48.8101867131 31.5331149567 57.3450875144
Fe 50.2229738856 32.9990343903 1.4233094995
Fe 51.6454089668 31.608530467 57.3451472349
Fe 53.1327800761 33.0046381624 1.4147568571
Fe 54.5812395789 31.6269227562 0.0206432927
Fe 55.9558072392 32.9507257221 1.4595179395
Fe 57.3769348242 34.4133715712 57.3454083709
Fe 1.4354273495 35.9160817217 1.3807557081
Fe 2.8684961815 34.4421737254 0.0235181635
Fe 4.256529588 35.8180235903 1.3888848312
Fe 5.7400956897 34.4651340698 57.3477727455
Fe 7.1673879222 35.8901632454 1.4382808741
Fe 8.5612157211 34.4669887472 0.0056562332
Fe 10.09106105 35.9047180135 1.4638609119
Fe 11.4540330035 34.4710254801 0.0523302233
Fe 12.9453692723 35.8541397195 1.4139521923
Fe 14.3609473358 34.4281575194 0.0089684494
Fe 15.7672388839 35.873739256 1.4695501226
Fe 17.2203387184 34.421920218 57.3511185849
Fe 18.6304266211 35.8635289005 1.4092341104
Fe 20.0677149038 34.4183509716 0.0051408672
Fe 21.5604796292 35.9251246737 1.3969453098
Fe 22.9720713825 34.4012674945 57.35105459
Fe 24.3385041198 35.924961569 1.482737636
Fe 25.7989195111 34.3918271968 0.0021188441
Fe 27.268149128 35.8883400268 1.4740075006
Fe 28.666161804 34.390415197 57.3691552495
Fe 30.1509285647 35.8300458877 1.4327573397
Fe 31.5804049745 34.436393692 57.3507254278
Fe 33.0392016434 35.9197340701 1.4552552186
Fe 34.4064354041 34.4149299161 57.3526869266
Fe 35.8226764015 35.8728097468 1.4592220487
Fe 37.2681026878 34.4264079909 0.0028598853
Fe 38.7332152656 35.8735837477 1.4375196993
Fe 40.1912842613 34.4038278156 0.0376564698
Fe 41.607461739 35.9102940505 1.4586327559
Fe 43.1054604891 34.4724840702 0.0481500103
Fe 44.4722545363 35.9219397865 1.428887336
Fe 45.9343558658 34.4660225942 0.0010338706
Fe 47.3485387086 35.8223853772 1.4746785
Fe 48.7601871173 34.4762314824 6.0236587e-04
Fe 50.169725611 35.8327868032 1.3977954065
Fe 51.6698345995 34.4672735812 57.3911639523
Fe 53.0833841953 35.9214623963 1.4717176327
Fe 54.4774237475 34.409761229 57.3526004319
Fe 55.9533500263 35.8884642363 1.4250879432
Fe 57.3922489432 37.3620952577 57.3808363531
Fe 1.4155550189 38.7762120051 1.3960949903
Fe 2.8252670051 37.2881110599 57.3507988769
Fe 4.3429257323 38.7537871345 1.4378357834
Fe 5.7327651072 37.3280998844 57.3676917409
Fe 7.136634619 38.7350197043 1.3857713574
Fe 8.5631369123 37.304845883 57.3991447811
Fe 10.0832682025 38.7518628137 1.4146317539
Fe 11.4488757909 37.2704975407 57.3847223001
Fe 12.8674247862 38.7236059426 1.4005856936
Fe 14.2933457683 37.3582480432 0.0241611227
Fe 15.7570493446 38.7935879061 1.4622937255
Fe 17.194229206 37.3122168139 0.0427179839
Fe 18.6239115315 38.7814027699 1.3894758261
Fe 20.0840683259 37.3360150444 57.3793582103
Fe 21.5247902192 38.7806318566 1.3969491995
Fe 22.9581681942 37.2746701894 57.3725879137
Fe 24.4377411159 38.7413107238 1.3842635993
Fe 25.8708126147 37.3127885814 57.3814697871
Fe 27.3168742799 38.7397355467 1.4128073266
Fe 28.6565118316 37.3091684237 57.3693057373
Fe 30.085253874 38.7994433498 1.4023293819
Fe 31.5552702605 37.3280638431 0.015863285
Fe 33.0237304713 38.7136667987 1.4437384292
Fe 34.4043875654 37.3231205059 0.0430486143
Fe 35.8904489873 38.7052111138 1.4144405907
Fe 37.3010414202 37.3381492818 0.0439589621
Fe 38.7310270352 38.7249794193 1.3828785737
Fe 40.1533903159 37.2884018168 0.0569521266
Fe 41.6091572155 38.8026876946 1.4312404512
Fe 43.0923727285 37.3317810196 0.0482767098
Fe 44.4437594719 38.7444923659 1.4281884269
Fe 45.9003326635 37.2836850418 57.3752921784
Fe 47.3202916505 38.7027048201 1.4694287997
Fe 48.7470585838 37.2854963979 0.0553599103
Fe 50.2038698702 38.7126817258 1.4417777286
Fe 51.6184356862 37.2928728652 57.3856477818
Fe 53.11106948 38.7569148111 1.3824155729
Fe 54.4856512048 37.3622891914 57.3614410394
Fe 55.9987403393 38.7055977334 1.4591316813
Fe 0.0268456027 40.1964213197 57.3830263989
Fe 1.4287227773 41.6590334706 1.4047746728
Fe 2.8835469326 40.2064434449 0.0383689225
Fe 4.3167814569 41.6281042291 1.4088348958
Fe 5.7897046847 40.2188243768 57.3955313072
Fe 7.1306878622 41.6505480075 1.4844072382
Fe 8.6090328962 40.17923147 0.0432356715
Fe 10.0692056186 41.6704132311 1.4394439248
Fe 11.5075047278 40.1988532681 57.3896655489
Fe 12.9452528664 41.6395785221 1.4601648094
Fe 14.3183562801 40.2341666234 57.3981993046
Fe 15.7497182559 41.59036348 1.4568928567
Fe 17.1834578536 40.1962963086 57.3513681038
Fe 18.6788457144 41.6616540537 1.4071074554
Fe 20.1298835232 40.1996738607 57.392833763
Fe 21.5194634011 41.5815319755 1.473377827
Fe 23.0038874505 40.1464648849 57.3468306555
Fe 24.3956764246 41.5846342019 1.4671128886
Fe 25.8572019542 40.1555622749 0.0475442894
Fe 27.2601216903 41.6604414138 1.4006573721
Fe 28.7318052745 40.218855054 0.0224227856
Fe 30.1502155044 41.6620092926 1.3821905751
Fe 31.5914865549 40.1787284325 57.3660088192
Fe 33.0215128445 41.6571064453 1.4456037486
Fe 34.4379608774 40.237703118 0.0397358062
Fe 35.8807374154 41.5748292723 1.4845546574
Fe 37.2696052054 40.1893433069 0.0196928875
Fe 38.7834786519 41.6687922913 1.4332791891
Fe 40.2208542175 40.2210475807 57.3947162639
Fe 41.6726981632 41.6266555623 1.4797518989
Fe 43.0919680362 40.1675686001 57.3842687877
Fe 44.456380457 41.670301899 1.4104439483
Fe 45.9197633724 40.2141153619 0.0370559591
Fe 47.3712438307 41.6063632872 1.3852629046
Fe 48.8233657345 40.2163602799 0.0150833974
Fe 50.2752533468 41.6718626171 1.4813881425
Fe 51.6435228455 40.1594156432 57.3961734466
Fe 53.1497614491 41.6459895173 1.4134772176
Fe 54.5832648342 40.1317993211 0.0252819658
Fe 55.9377732542 41.6416059048 1.4574171335
Fe 0.0080011374 43.0498818262 57.3996533205
Fe 1.4804316875 44.480991872 1.4504068995
Fe 2.922095735 43.0773853502 57.3836399594
Fe 4.3282051438 44.5086916529 1.4722511391
Fe 5.759976175 43.0058957043 57.3687785038
Fe 7.1671938288 44.4767808117 1.3919734432
Fe 8.6118928259 43.1050245809 0.0355864069
Fe 10.0130789907 44.5399683211 1.3937188585
Fe 11.4276624136 43.0839581861 57.3879870914
Fe 12.8869773796 44.4689536501 1.4470294167
Fe 14.3386255574 43.0481344095 0.0546414067
Fe 15.7478217633 44.4903243608 1.4404650997
Fe 17.2565353655 43.0939483244 0.0114571439
Fe 18.6706464465 44.5344447253 1.4597366003
Fe 20.0343829926 42.9946589087 57.3424011273
Fe 21.5066786111 44.4856524155 1.4643807551
Fe 22.9883648876 43.0121510477 0.0479439815
Fe 24.416680958 44.5217038103 1.484731615
Fe 25.8590921661 43.0236990186 0.0027502093
Fe 27.2610008479 44.4900095997 1.4322759524
Fe 28.7120787589 43.0787430132 0.0508579922
Fe 30.1645961092 44.512489129 1.4201060311
Fe 31.6230764596 43.0497426925 0.0458543986
Fe 32.9569247208 44.4501945689 1.4580534964
Fe 34.4515898067 43.043046282 57.3749171991
Fe 35.8186859978 44.5172837004 1.4535526843
Fe 37.3323531596 43.0515044547 57.3477909539
Fe 38.7705809816 44.486834584 1.4857148637
Fe 40.1346899323 43.0667137609 0.0263117333
Fe 41.6440468708 44.4652674687 1.3831251369
Fe 43.09567291 42.999212617 57.3701382789
Fe 44.4413026958 44.502302925 1.4905769862
Fe 45.8785927068 43.0432085688 57.3805032696
Fe 47.3483293246 44.5088464009 1.3779082629
Fe 48.7741051483 43.0389791346 57.3919207618
Fe 50.2412353789 44.4278784505 1.4074667844
Fe 51.637340274 43.0190132487 0.0221164111
Fe 53.114193364 44.4347344461 1.4902545164
Fe 54.562168898 43.0154460835 0.0504723459
Fe 56.0110937653 44.4934574313 1.4700657684
Fe 57.3746953594 45.8794430147 57.3846544578
Fe 1.4284959842 47.3860024136 1.4497817932
Fe 2.8790868715 45.8704112854 0.0160728968
Fe 4.3294541038 47.3427248246 1.4367107638
Fe 5.7144688981 45.9240106277 57.3554383439
Fe 7.1816067708 47.3131506647 1.4253067162
Fe 8.5924305718 45.8992214506 57.3814867262
Fe 10.0955220794 47.3156130629 1.4302946959
Fe 11.4920539575 45.964455409 0.0461910574
Fe 12.9581537207 47.3846467733 1.4744309548
Fe 14.3105121835 45.9638772512 0.0384532176
Fe 15.8332561309 47.3003442011 1.3805207787
Fe 17.2089392857 45.9001913888 57.3640041733
Fe 18.6433424676 47.3424179008 1.4703352153
Fe 20.0770063034 45.914515584 0.0311760341
Fe 21.5699974434 47.376217147 1.4193176722
Fe 22.9976627651 45.9027339837 0.0214947888
Fe 24.356258064 47.3393831151 1.4228383129
Fe 25.7863071642 45.8942727408 0.0551460782
Fe 27.2367106156 47.3485098107 1.4871852258
Fe 28.6481287493 45.894554585 57.3613283002
Fe 30.0979183369 47.3537478271 1.4666264418
Fe 31.5245135976 45.88613996 0.0492517549
Fe 33.0248285587 47.3346310588 1.4344363542
Fe 34.4478095595 45.9401075447 57.3939770546
Fe 35.9000540088 47.3305399498 1.4148090248
Fe 37.2576856998 45.9726342781 0.0250068962
Fe 38.7723270449 47.3414839871 1.4624479143
Fe 40.1816310938 45.8719263319 57.3900047396
Fe 41.594535306 47.3113156407 1.4335826595
Fe 43.0098045412 45.8654504363 0.0553011156
Fe 44.4331098788 47.3458491537 1.4633095193
Fe 45.8815393036 45.9563914415 0.0353360885
Fe 47.3179321959 47.3003160522 1.4060905636
Fe 48.7559012261 45.9631041572 0.027566038
Fe 50.254451007 47.3809733207 1.4879579174
Fe 51.6180775172 45.9493796179 57.3486653094
Fe 53.1399040361 47.3959948199 1.4413367244
Fe 54.5519303464 45.9643274186 0.0208350093
Fe 56.0046752152 47.4119078199 1.3972890929
Fe 0.006418135 48.8209932861 57.3833931587
Fe 1.487584098 50.1788025578 1.4490636674
Fe 2.8981781805 48.805816286 0.0385740368
Fe 4.2973373535 50.2497292121 1.4711773784
Fe 5.7716610237 48.7504335178 57.3630636929
Fe 7.1840049474 50.1694180317 1.3880084402
Fe 8.6156812823 48.8425178288 57.386061386
Fe 10.0905627335 50.2012494286 1.4784276605
Fe 11.4737550318 48.822924421 57.3529654307
Fe 12.9569627709 50.202258536 1.3811949316
Fe 14.37861761 48.8124447374 57.361684208
Fe 15.8199434087 50.1907749028 1.4496368353
Fe 17.2648087409 48.7929096589 0.0098998158
Fe 18.6360997733 50.2338362511 1.3784526993
Fe 20.0714486275 48.8292618168 57.3628194347
Fe 21.559860163 50.2746522417 1.3946159539
Fe 22.9262391721 48.8270354975 57.3803938312
Fe 24.3927392787 50.179663125 1.4720805055
Fe 25.8449276666 48.7415990279 57.3620459903
Fe 27.2964311583 50.1931210314 1.3892605687
Fe 28.7561346958 48.7586949483 0.0037922848
Fe 30.1449526011 50.2287035606 1.3884887654
Fe 31.5906697655 48.7617513972 0.0235063077
Fe 32.9670581554 50.2390234341 1.3846503361
Fe 34.4444787824 48.7348668812 57.3601710782
Fe 35.9179342159 50.246452247 1.4599603645
Fe 37.3251287054 48.7980064254 57.3470893311
Fe 38.8003419015 50.2617625366 1.4310055263
Fe 40.185949669 48.7767481317 57.3583806324
Fe 41.6331870925 50.2454158858 1.4394468952
Fe 43.0812460841 48.7762741676 57.3936697047
Fe 44.4773858743 50.2178786936 1.4153360914
Fe 45.8702295932 48.8224726658 57.3559180924
Fe 47.3035732945 50.1829624415 1.4259836402
Fe 48.7351795296 48.768038537 57.347436437
Fe 50.2173838887 50.1755268955 1.3938828167
Fe 51.7108866559 48.7622352271 57.3908567615
Fe 53.0412712309 50.1946624003 1.382103418
Fe 54.5163701495 48.737831643 0.0232339038
Fe 55.9857063614 50.1931188324 1.4593227947
Fe 57.3669916823 51.7129604335 0.0192216936
Fe 1.4598442163 53.1230244052 1.4063002471
Fe 2.8941253962 51.6886360432 0.0467122876
Fe 4.3405291471 53.0854387006 1.3937969795
Fe 5.7264703522 51.6075529885 0.0564148734
Fe 7.180359141 53.1112030789 1.4017637329
Fe 8.556495098 51.6158134379 0.0450789183
Fe 10.0748364763 53.125430788 1.480133847
Fe 11.4674953406 51.6602189125 57.3441859275
Fe 12.9244935048 53.1278723674 1.4412180224
Fe 14.3812111314 51.6611438403 57.3435899627
Fe 15.7977802725 53.1013254493 1.4641558847
Fe 17.269779141 51.6533012743 0.0337570049
Fe 18.6273168865 53.1362044221 1.3989198696
Fe 20.0495987224 51.6707696464 3.85587687e-04
Fe 21.4886112852 53.0927764106 1.4529432884
Fe 22.9594665086 51.644576868 0.0037644713
Fe 24.4291521207 53.0395263934 1.4633229203
Fe 25.8093646655 51.6851750163 0.0318781422
Fe 27.2352872701 53.1123782059 1.4267223444
Fe 28.7188814131 51.6646358199 0.0044628444
Fe 30.0815452739 53.1150542495 1.4276341953
Fe 31.5671829473 51.602432775 57.399329236
Fe 33.023968551 53.0757833538 1.4085379847
Fe 34.4622634809 51.7021347943 57.3484518721
Fe 35.8622909615 53.1135143108 1.3916890051
Fe 37.3024782538 51.6091221385 0.0411541589
Fe 38.729544965 53.0523900172 1.3809057511
Fe 40.1272276573 51.6512386662 57.3879531242
Fe 41.5739333608 53.0973206846 1.4291048736
Fe 43.0819009754 51.7166844341 0.0513790961
Fe 44.4665185535 53.0610451673 1.4163821382
Fe 45.8820583625 51.6261949828 0.0059790389
Fe 47.3146491222 53.1180413958 1.4613592868
Fe 48.8467069432 51.6592658931 0.0319195785
Fe 50.2320712181 53.0400765563 1.4690070335
Fe 51.6048890622 51.6342831258 57.3957383715
Fe 53.0475006385 53.0667656964 1.4314533619
Fe 54.5054005776 51.6047445901 57.3846062783
Fe 55.946184402 53.137196028 1.4202805387
Fe 0.0547550097 54.5660844763 57.3583064682
Fe 1.4008686326 55.9354057777 1.4214748248
Fe 2.9208225338 54.5086760112 57.3830814849
Fe 4.2654399934 55.9384805494 1.4069403537
Fe 5.7853140917 54.5398773446 57.3562011096
Fe 7.1861281789 56.0083114485 1.4028443697
Fe 8.6210908531 54.5392103911 57.3546576447
Fe 10.0274036333 55.9411653376 1.4216027266
Fe 11.4428538897 54.4914155043 57.386543062
Fe 12.9365887891 56.0000460532 1.457767619
Fe 14.3821461379 54.5462773327 0.0149702384
Fe 15.7907991654 55.9885581866 1.4371321077
Fe 17.225975262 54.5439702135 0.0510328017
Fe 18.6062297088 56.0131124557 1.4902898897
Fe 20.0583269401 54.569560843 0.0467783762
Fe 21.4779762565 55.9951434636 1.4147579522
Fe 22.9193613542 54.4911468507 57.3824833534
Fe 24.3706855234 56.0026825254 1.4496960688
Fe 25.8534491391 54.5143053508 0.0174234752
Fe 27.2148767577 56.0152961039 1.4128127783
Fe 28.7335109051 54.5710566317 0.0080317208
Fe 30.0823518617 55.9383935915 1.4824483675
Fe 31.6028936915 54.5792482086 0.0257565016
Fe 33.0180548795 55.9666818397 1.4322390294
Fe 34.4548133966 54.4942884925 0.0149732416
Fe 35.8315975801 55.9748495848 1.4883407219
Fe 37.3083100098 54.4907896741 0.0382671127
Fe 38.6966707179 56.0212887639 1.396787939
Fe 40.1479419149 54.576176849 57.3802836276
Fe 41.55894448 56.0162879252 1.4608822116
Fe 43.0451451883 54.499648125 0.0172836316
Fe 44.428999088 56.0039769693 1.4252197145
Fe 45.9448102789 54.4889413939 0.0229784819
Fe 47.3314667217 56.0206552287 1.4566330879
Fe 48.8236100359 54.587815385 0.0448237738
Fe 50.2666307409 55.9453827451 1.3926590076
Fe 51.6149046981 54.5852927554 57.3464064255
Fe 53.0509544432 55.9909483907 1.4917507433
Fe 54.5608014295 54.5558181368 57.3456030484
Fe 55.9864137151 56.0135128593 1.4324932583
Fe 0.0133851919 0.0568954556 2.9010242046
Fe 1.3983420182 1.4773829151 4.282684177
Fe 2.8682909347 57.3822205579 2.9231306718
Fe 4.3492543196 1.4347967032 4.3462657182
Fe 5.7321465843 0.0513166406 2.8909215084
Fe 7.1196399457 1.4326681452 4.278472843
Fe 8.6131318833 57.3704216629 2.9041866401
Fe 10.0022069606 1.4319761322 4.3492696362
Fe 11.5054448103 0.0502781198 2.8242063881
Fe 12.9299356192 1.481994411 4.2476484463
Fe 14.3019796912 0.04732988 2.8383357644
Fe 15.8220496398 1.3908529823 4.3559458203
Fe 17.1933844448 57.3507566604 2.860326075
Fe 18.6737795334 1.4835840599 4.2795860642
Fe 20.0559844647 57.3517829171 2.8729821592
Fe 21.51294141 1.4186621169 4.3552494954
Fe 23.0065893062 57.3824857063 2.8726720108
Fe 24.4232188555 1.4811187205 4.2638178855
Fe 25.7729096543 57.3578595022 2.8485786249
Fe 27.2588759891 1.4367011886 4.2857884673
Fe 28.7490743418 0.0554792975 2.836547588
Fe 30.1611791065 1.4607987381 4.3522862658
Fe 31.603259308 57.3459336116 2.8690617469
Fe 33.0421594855 1.4174607672 4.2661691276
Fe 34.412752704 57.3921225348 2.9213750858
Fe 35.9131127864 1.4712910203 4.3110679878
Fe 37.3107393492 57.3622413763 2.8328652505
Fe 38.7699764756 1.3945859538 4.2903348987
Fe 40.1803393807 0.0257545437 2.8733483707
Fe 41.6286776328 1.385221202 4.3139237709
Fe 43.0555883277 0.0151719953 2.9071414525
Fe 44.528158137 1.4804759222 4.2533292337
Fe 45.8719122861 0.0102262121 2.8770571545
Fe 47.3745950228 1.3927126033 4.2937108429
Fe 48.7712210574 57.3932513431 2.8157212022
Fe 50.1943809636 1.4193016289 4.2864030848
Fe 51.6537790087 57.3815725165 2.8407097059
Fe 53.0801984264 1.4067031248 4.3384854327
Fe 54.5259622907 0.0113127202 2.8313744556
Fe 55.9299538944 1.476935924 4.3402743288
Fe 0.0302664546 2.8983099852 2.9213270058
Fe 1.457695099 4.3482775422 4.2729654385
Fe 2.8557279882 2.8383708947 2.8616198003
Fe 4.2640543109 4.3070908288 4.2958375938
Fe 5.7905317767 2.8570716126 2.8553487391
Fe 7.2318841868 4.3120283145 4.283244189
Fe 8.5664864665 2.847926366 2.8138364324
Fe 10.0462870963 4.2812231331 4.2612423562
Fe 11.5312232225 2.8638414781 2.8611477251
Fe 12.9170599158 4.3021481259 4.3585279517
Fe 14.3113522662 2.8748962676 2.8572877982
Fe 15.7341136416 4.2963508002 4.2485927006
Fe 17.1693849393 2.8711324493 2.8459848353
Fe 18.650051345 4.2843850384 4.291865914
Fe 20.1474919882 2.8869010001 2.8455313912
Fe 21.5285621178 4.353518181 4.263568285
Fe 22.9332822003 2.8632647803 2.8999406968
Fe 24.3558180244 4.3440670705 4.3167524212
Fe 25.8222705678 2.8739429391 2.8884733015
Fe 27.2183135756 4.3351524769 4.2884693563
Fe 28.7369345214 2.8737629323 2.8184373668
Fe 30.187266722 4.26788152 4.3343207666
Fe 31.5831532736 2.895641866 2.8650774281
Fe 33.0589515789 4.325171768 4.2580220705
Fe 34.4652404778 2.9223452556 2.8465505193
Fe 35.8606660552 4.2644840422 4.315795543
Fe 37.2832632216 2.8356114577 2.8859783943
Fe 38.781054656 4.3531768447 4.3166562981
Fe 40.1413434306 2.903069888 2.8946029363
Fe 41.6566942699 4.293158629 4.2950171195
Fe 43.0919523785 2.8698441872 2.8264210408
Fe 44.512085209 4.2784602708 4.2896767709
Fe 45.8791308666 2.8211565071 2.8800971617
Fe 47.3066665398 4.2694843876 4.3211410015
Fe 48.8355697115 2.8834574545 2.8472360889
Fe 50.2340422147 4.280753265 4.2658259274
Fe 51.7047765462 2.8789155021 2.8578781383
Fe 53.1177625537 4.3081221353 4.3270558012
Fe 54.5412651134 2.8150716905 2.8583161399
Fe 56.0176719069 4.2921780389 4.3117197692
Fe 0.020496894 5.6917576462 2.8816267806
Fe 1.440282598 7.1965795567 4.3174047633
Fe 2.8448649993 5.7153330491 2.8334480051
Fe 4.3171088945 7.1969231211 4.2882762778
Fe 5.7760603696 5.71405708 2.8925859085
Fe 7.2179171631 7.1238697217 4.2667341381
Fe 8.6666733804 5.7730096692 2.8380850686
Fe 10.025309365 7.1830997738 4.3306534452
Fe 11.4529765553 5.7974722359 2.8965709462
Fe 12.9221432575 7.1959049262 4.3354009507
Fe 14.3582147682 5.790892973 2.9231218013
Fe 15.8412197472 7.1917693944 4.3230694408
Fe 17.2531407546 5.6838961772 2.8325419734
Fe 18.6125879644 7.1690650202 4.3014569708
Fe 20.0985368021 5.7719390602 2.8640097896
Fe 21.5815572019 7.223301015 4.2932082346
Fe 22.9433616258 5.7446120712 2.8515644397
Fe 24.4270493709 7.2285957284 4.3275023198
Fe 25.7747601377 5.7720640601 2.9266531707
Fe 27.2955091088 7.1521727809 4.2796154935
Fe 28.6782669432 5.7359120209 2.9219865847
Fe 30.1170446325 7.1230870839 4.2865264965
Fe 31.5573302329 5.7797981438 2.8959591552
Fe 33.0571635196 7.1984497014 4.2976052219
Fe 34.4535249021 5.7361381677 2.902966166
Fe 35.8764265192 7.1731508649 4.3495583993
Fe 37.2807115712 5.7612076746 2.8128933128
Fe 38.7426525753 7.1729389851 4.2767694818
Fe 40.2224372989 5.7759776342 2.817140466
Fe 41.5968429728 7.2089360118 4.2993253058
Fe 43.0775853901 5.7505297032 2.852356067
Fe 44.4321684709 7.2057028021 4.28823881
Fe 45.8751897251 5.7906065657 2.8708805162
Fe 47.3201140527 7.1576958745 4.2611838257
Fe 48.8435963067 5.722805344 2.9119545933
Fe 50.2621509422 7.1789260213 4.2891717125
Fe 51.6365864743 5.68988495 2.9107229614
Fe 53.103267316 7.1565179775 4.3298877918
Fe 54.5530498078 5.7658264626 2.8735703912
Fe 56.0179206453 7.1830377706 4.2965319509
Fe 0.0139262775 8.5921485454 2.8854801031
Fe 1.3929777615 10.0204961186 4.313491949
Fe 2.8509999109 8.5792730671 2.8514789269
Fe 4.3064295803 10.0085216528 4.3449461613
Fe 5.7494327037 8.5973248313 2.9274141647
Fe 7.1339575906 10.0146717256 4.3264043431
Fe 8.5529135265 8.6525650908 2.919878273
Fe 10.0448671269 10.0336852846 4.2883527692
Fe 11.4495883217 8.6000833794 2.9209196038
Fe 12.8654697745 10.0609924212 4.2907382054
Fe 14.306397371 8.6614566486 2.9076453532
Fe 15.8384529271 9.994993893 4.3434849435
Fe 17.1694519863 8.5814280134 2.8691105316
Fe 18.693699425 10.0592766639 4.3382938362
Fe 20.0433496772 8.558592772 2.860030622
Fe 21.4977590486 9.9971444553 4.3596669493
Fe 22.9998963284 8.6213175257 2.9232879382
Fe 24.3902059513 10.1027404922 4.315807587
Fe 25.7918103536 8.6515062388 2.8551197644
Fe 27.2742556724 10.0087801132 4.3420126587
Fe 28.6779653046 8.5766478175 2.8787851855
Fe 30.0937000868 9.9942855262 4.3150857427
Fe 31.5868250989 8.6656094205 2.8953050835
Fe 32.9573781298 10.0967811901 4.2707590651
Fe 34.443053686 8.5558710368 2.876735576
Fe 35.8849512513 10.0378192905 4.3521777756
Fe 37.2988936628 8.5945464373 2.829984217
Fe 38.743078989 10.0763807196 4.3313216961
Fe 40.2187699238 8.5988630627 2.8195209632
Fe 41.6375925236 10.0700998561 4.2807993792
Fe 43.0654641684 8.6268198529 2.9230881938
Fe 44.528268986 10.0060052091 4.2592602744
Fe 45.8833418479 8.6291670024 2.8531370097
Fe 47.3177173812 10.083186844 4.351957584
Fe 48.7725731137 8.6204937964 2.8834845166
Fe 50.2063667505 10.0068396742 4.3561219067
Fe 51.683791347 8.5732571323 2.8513219057
Fe 53.094975528 9.9898756198 4.2671927801
Fe 54.525111376 8.6062825963 2.9167415557
Fe 55.9524307493 10.0005320664 4.3486618595
Fe 0.0339582682 11.4733572544 2.8774366166
Fe 1.4442034454 12.9421732258 4.2677285854
Fe 2.8710113947 11.4514536508 2.838921827
Fe 4.2816251619 12.9464038471 4.3191791349
Fe 5.7070812627 11.4393786548 2.8784737092
Fe 7.164955175 12.942824817 4.2720152065
Fe 8.6612674082 11.529036865 2.8377914614
Fe 9.9901028072 12.9699396945 4.27544293
Fe 11.5005367022 11.5141589067 2.8541769073
Fe 12.9101872375 12.9497114952 4.273725155
Fe 14.3092687917 11.4791116135 2.8682340931
Fe 15.7532921357 12.9228104729 4.3094141275
Fe 17.2506592422 11.423966414 2.8435440554
Fe 18.6057753924 12.8618293366 4.3026021462
Fe 20.0397451204 11.527182696 2.9196985067
Fe 21.4855974486 12.8902800803 4.3057933196
Fe 22.9429248338 11.5136462376 2.8774473808
Fe 24.337831761 12.8862481698 4.2905333101
Fe 25.8523045382 11.4618028065 2.8638969729
Fe 27.2170225544 12.9224685551 4.2848011042
Fe 28.6759958473 11.5127905905 2.8628856326
Fe 30.1800069641 12.86945229 4.2753283238
Fe 31.5536082044 11.5271844219 2.9089030095
Fe 33.0294600152 12.9667851208 4.2820392547
Fe 34.4298902938 11.4724186395 2.8920217508
Fe 35.8428743915 12.8648430664 4.3237518942
Fe 37.3119546312 11.4514485865 2.8779101597
Fe 38.6882668633 12.8701602757 4.305565983
Fe 40.1942418046 11.4920926232 2.8354815981
Fe 41.5601664078 12.9182512583 4.3370513074
Fe 43.0071413264 11.5252788539 2.9160554634
Fe 44.5349267585 12.9304142625 4.3224749529
Fe 45.8658433337 11.513070541 2.8909495189
Fe 47.3621649242 12.9139674945 4.3416479001
Fe 48.7424027259 11.4772221005 2.8233049435
Fe 50.2670754339 12.8900218278 4.3228513803
Fe 51.6651427431 11.4714902179 2.8195349734
Fe 53.0901853477 12.8845123597 4.2662333536
Fe 54.5737052104 11.4773020912 2.8140281745
Fe 55.9869197692 12.9016560733 4.2550584297
Fe 0.00729227 14.3545785387 2.8804360301
Fe 1.385823308 15.8370585693 4.2919407237
Fe 2.8736018917 14.3688610664 2.8861377595
Fe 4.270894009 15.7752201616 4.292806377
Fe 5.785641489 14.3610819991 2.8527081623
Fe 7.2295653492 15.8358583244 4.3161773681
Fe 8.6333739967 14.3274400915 2.897898586
Fe 10.0667657483 15.8372077271 4.3526723921
Fe 11.4643397566 14.3261213335 2.8945092576
Fe 12.8579148619 15.8017152129 4.3564512485
Fe 14.3980556761 14.3737652077 2.8274209019
Fe 15.7700975262 15.7670845542 4.3318987539
Fe 17.2369129592 14.3102591936 2.8404607233
Fe 18.6503682822 15.7410090621 4.2719219991
Fe 20.1104872266 14.3311933269 2.8356238094
Fe 21.5307732538 15.777888577 4.2596468796
Fe 22.9341712476 14.3899277251 2.9227566098
Fe 24.3950633395 15.8070061886 4.283695832
Fe 25.8712725038 14.3871887031 2.9260467167
Fe 27.2983410091 15.781544689 4.3072085284
Fe 28.6552921139 14.2961249076 2.921815515
Fe 30.1295834415 15.7376361499 4.2656886065
Fe 31.6092673436 14.3841822826 2.8741785498
Fe 32.9809812662 15.7421857881 4.2600531859
Fe 34.4972950105 14.3892262834 2.9143922843
Fe 35.9314377999 15.8276728715 4.2644951729
Fe 37.3668180339 14.3567459111 2.9262099283
Fe 38.7760181985 15.8413152134 4.2793929402
Fe 40.2188200171 14.3901193786 2.9130540359
Fe 41.6172926468 15.762863975 4.2987984955
Fe 43.0059700521 14.4008218484 2.8952711573
Fe 44.4532401814 15.7467509722 4.3293605554
Fe 45.9010497662 14.3718248437 2.8632264496
Fe 47.30432342 15.8229388328 4.3250998
Fe 48.8385409178 14.3952869814 2.8504569896
Fe 50.1922472619 15.7585861408 4.2761781393
Fe 51.6540877164 14.3839045416 2.9006290291
Fe 53.0413597348 15.7748885249 4.3086817762
Fe 54.5451204886 14.3783883386 2.8182379791
Fe 55.9114704547 15.7795991614 4.2818871424
Fe 57.3458501897 17.213476487 2.9081313187
Fe 1.4089076729 18.5978987356 4.2585610738
Fe 2.8769812465 17.2437548481 2.8447332063
Fe 4.2752246249 18.6453036127 4.2930892456
Fe 5.6975966607 17.1946369189 2.8480702507
Fe 7.1401466377 18.6627829365 4.361464771
Fe 8.6368503074 17.1891453138 2.8232579457
Fe 10.0284389847 18.6506233196 4.270032469
Fe 11.531806063 17.1640419579 2.8441498042
Fe 12.9025761336 18.6231516989 4.2776832578
Fe 14.3803319488 17.1684393253 2.8677127422
Fe 15.7888834564 18.6475045853 4.2736126821
Fe 17.1995303601 17.2217803437 2.9036916121
Fe 18.666796049 18.5984079729 4.3356397104
Fe 20.0708803628 17.1988111101 2.8329366293
Fe 21.5238234372 18.663573465 4.3221806386
Fe 23.0063290935 17.235361801 2.8603851731
Fe 24.3889984824 18.6997296253 4.2868601858
Fe 25.7977977732 17.2185876223 2.8656481797
Fe 27.2275421568 18.6115596633 4.3517148975
Fe 28.7188580764 17.1977553692 2.9119873991
Fe 30.1470612732 18.6890753812 4.2751908814
Fe 31.5173195195 17.236886432 2.9162702713
Fe 33.0420378407 18.6276839201 4.3549751698
Fe 34.4206480543 17.2365031026 2.8223897528
Fe 35.9145323379 18.7013386215 4.3451631311
Fe 37.2770532485 17.1705229089 2.8359146206
Fe 38.7206890441 18.6341254623 4.3002086601
Fe 40.1250211405 17.1957611212 2.8564012129
Fe 41.6294945125 18.6900852419 4.28188137
Fe 43.0062565095 17.1661981377 2.8570650929
Fe 44.4468592439 18.6723484375 4.2613847469
Fe 45.9504841736 17.2712297712 2.8829869135
Fe 47.3776977074 18.6883788925 4.2737997665
Fe 48.738849794 17.1888353394 2.8432249401
Fe 50.1857719261 18.6699092709 4.315363074
Fe 51.6534976148 17.1941590086 2.8996367794
Fe 53.1150794785 18.6075167281 4.2901375692
Fe 54.5439256493 17.2568543587 2.8733399599
Fe 55.9087625302 18.6014950489 4.3398184687
Fe 0.0018903712 20.1261250936 2.8583613049
Fe 1.4190068497 21.5741490924 4.2731733113
Fe 2.9062903886 20.1144961047 2.9065311519
Fe 4.3388905954 21.5426519901 4.2627769832
Fe 5.7281418981 20.1308912472 2.8994996068
Fe 7.1912763746 21.5427030955 4.3137984514
Fe 8.644112106 20.1081704713 2.8878490339
Fe 10.0859530222 21.5235702172 4.3313005931
Fe 11.4819903289 20.1202792469 2.9251524747
Fe 12.9048183717 21.5731677185 4.3492155445
Fe 14.3261696307 20.0557670225 2.8866316207
Fe 15.7404279433 21.5474222455 4.3103400357
Fe 17.2735160098 20.089601748 2.8849600433
Fe 18.7093637871 21.5749608538 4.2479946707
Fe 20.1337107854 20.1161009446 2.8578018613
Fe 21.5159845257 21.5400206653 4.3218251476
Fe 23.0033219569 20.1283358748 2.8698608974
Fe 24.3629812273 21.5578555117 4.3068347918
Fe 25.8644206689 20.0809436406 2.8715385923
Fe 27.2540171056 21.492676399 4.3429146411
Fe 28.6867997595 20.0479231197 2.90260932
Fe 30.0927324113 21.5749055658 4.3036394449
Fe 31.5718994563 20.1434148175 2.849639988
Fe 33.0549074645 21.4679167527 4.3587935614
Fe 34.4175116413 20.0598166707 2.8284781504
Fe 35.8438977124 21.4940000184 4.3223928263
Fe 37.3559030273 20.1379557219 2.9035145936
Fe 38.7965376204 21.5516911722 4.3020417032
Fe 40.162069891 20.081401304 2.8705410009
Fe 41.6427799932 21.5023242357 4.2604935327
Fe 43.0390358979 20.0381180241 2.9140780537
Fe 44.4409909416 21.5189168182 4.3242904934
Fe 45.9010222256 20.1263553784 2.9029190271
Fe 47.3398022885 21.5775800674 4.3549972651
Fe 48.7788408554 20.135717086 2.9246978731
Fe 50.2087324741 21.5059685042 4.3342193433
Fe 51.6114660831 20.0392170626 2.8162429164
Fe 53.0614403747 21.5817525424 4.2975752328
Fe 54.5608673528 20.0477029224 2.8477906646
Fe 55.9711229551 21.4706005112 4.3321983519
Fe 57.3796533631 22.9263211325 2.8853246715
Fe 1.4091257116 24.3741131111 4.321543739
Fe 2.8498434092 22.9598151003 2.8873568206
Fe 4.3027662896 24.4278188607 4.2575901727
Fe 5.726919337 22.9803732365 2.8342243686
Fe 7.2225589128 24.3585617974 4.3494886965
Fe 8.6058720402 22.9435323373 2.8344595994
Fe 10.0473594019 24.3522655734 4.3420596806
Fe 11.5122299543 22.9659684486 2.878440258
Fe 12.9688237178 24.3673065807 4.3316710633
Fe 14.3931068077 22.9313406733 2.9126437991
Fe 15.7283279059 24.3484872914 4.2672026724
Fe 17.2695120526 22.9679675776 2.9201817797
Fe 18.6440879937 24.3995813821 4.3501381352
Fe 20.1002999221 22.957250368 2.8701099314
Fe 21.4930521372 24.4347980037 4.274003331
Fe 22.984576414 22.9318036971 2.9156817194
Fe 24.3568902346 24.3884674646 4.2830597273
Fe 25.7848763306 22.9536427248 2.9243561817
Fe 27.2985133464 24.3767013309 4.3358149089
Fe 28.7212131792 23.0145496157 2.8512855003
Fe 30.1879259227 24.3684302395 4.3396582031
Fe 31.5391149338 22.9315064205 2.8199275265
Fe 32.9758827423 24.3778702601 4.3343930779
Fe 34.4020973275 22.9410875031 2.8482700594
Fe 35.8985895295 24.3495920665 4.2620480188
Fe 37.3637354535 23.0093972698 2.8548189855
Fe 38.7099272181 24.4373285825 4.289600526
Fe 40.1562867556 23.0144141615 2.8181340718
Fe 41.6121877414 24.3782546228 4.3074572554
Fe 43.0453159228 22.9986643204 2.8933019797
Fe 44.5085642323 24.3519441411 4.297696597
Fe 45.8726525778 22.9155015333 2.8728985102
Fe 47.3797681183 24.4218592511 4.3306551845
Fe 48.8361655627 22.9473998547 2.8777803002
Fe 50.2784734511 24.4486496332 4.3461128089
Fe 51.6855889524 22.9292921275 2.8791218009
Fe 53.0437416792 24.3655909537 4.3300831476
Fe 54.4816062962 22.967397119 2.8586351229
Fe 55.9769713771 24.3519784369 4.3098239044
Fe 57.3770611899 25.8655398264 2.886606322
Fe 1.3905704762 27.2478099678 4.2692430251
Fe 2.8840475786 25.8829200559 2.9096494148
Fe 4.2956985692 27.2822050046 4.3172437198
Fe 5.7817377155 25.7764862345 2.832591718
Fe 7.1663560249 27.2373564779 4.3103630055
Fe 8.6088264043 25.8452366248 2.8992344662
Fe 10.0172024905 27.2112373829 4.3287866751
Fe 11.494081842 25.864739267 2.8774629974
Fe 12.8942483253 27.2531759669 4.2842825868
Fe 14.3609394035 25.8710261451 2.9197978714
Fe 15.7829759941 27.3025906227 4.2766737345
Fe 17.1760277863 25.7907965065 2.861314695
Fe 18.6734703248 27.247289789 4.3000578717
Fe 20.0520109962 25.8236940523 2.9077623131
Fe 21.5020772357 27.2237379495 4.3614755438
Fe 22.910466299 25.8664920082 2.9096876032
Fe 24.4115903857 27.2718770176 4.3255372959
Fe 25.8589046182 25.8650855615 2.9173428205
Fe 27.2385371907 27.3032929152 4.355581275
Fe 28.7442756422 25.8116249354 2.8426918149
Fe 30.1641752119 27.2747963433 4.2784560141
Fe 31.5379810683 25.8048265939 2.918273295
Fe 33.0114535895 27.2097597644 4.3518130097
Fe 34.4599339367 25.84602338 2.8572179764
Fe 35.8504535486 27.299254509 4.2602453198
Fe 37.3341185901 25.8670779036 2.8421509736
Fe 38.6888859041 27.2688981589 4.2489003707
Fe 40.1333020462 25.8076708296 2.8299426362
Fe 41.6400728426 27.2839124414 4.3558928616
Fe 42.9968843954 25.8618018613 2.817990571
Fe 44.5021195548 27.2972553797 4.3607655064
Fe 45.9100880221 25.7773494153 2.8347286318
Fe 47.3999917151 27.2092745068 4.2801450444
Fe 48.7496390791 25.7885176655 2.9207730958
Fe 50.2455840073 27.3004262012 4.2812127007
Fe 51.7122030518 25.8450696659 2.8598521101
Fe 53.0893033682 27.2995843089 4.2528247035
Fe 54.480392923 25.8318549028 2.8411406258
Fe 55.9563140135 27.3161448168 4.2761181473
Fe 57.3778146765 28.6863954693 2.878666436
Fe 1.4485588134 30.1822752222 4.3477383264
Fe 2.8848935391 28.6733489319 2.9079212803
Fe 4.3593744206 30.1021323035 4.2805530486
Fe 5.7139091547 28.7534741135 2.8297440739
Fe 7.2157210755 30.1761685505 4.3576546681
Fe 8.5590499246 28.7176565255 2.8622309986
Fe 10.1026089772 30.098440423 4.3103931909
Fe 11.437605395 28.7008730044 2.8424395964
Fe 12.9266104486 30.158608511 4.2570012055
Fe 14.3032637268 28.7233879636 2.8179411576
Fe 15.8322672649 30.1862101389 4.3619919961
Fe 17.2203155923 28.6683186102 2.9237404254
Fe 18.6324116934 30.0881758261 4.3272432691
Fe 20.0577472619 28.7277043441 2.876232643
Fe 21.539455482 30.1569528313 4.2693569804
Fe 22.929716795 28.6750877012 2.8127885495
Fe 24.3690015954 30.1481780031 4.2577537624
Fe 25.7797538698 28.7430089197 2.8741896196
Fe 27.2268262402 30.1852520591 4.3413108534
Fe 28.7091849364 28.7055615215 2.8779139401
Fe 30.1404859283 30.1254575845 4.31317912
Fe 31.5503320307 28.7318261703 2.885962695
Fe 33.0050804272 30.1770655554 4.3195680173
Fe 34.4184347561 28.6425215378 2.8442917367
Fe 35.9017785187 30.1432639005 4.2790345285
Fe 37.2634149387 28.6499581863 2.842054985
Fe 38.69268201 30.125776731 4.2488382938
Fe 40.2190334489 28.6603671869 2.8321008498
Fe 41.5831688966 30.1450723687 4.2854741952
Fe 43.0500374645 28.7318096465 2.8752186839
Fe 44.5216041516 30.1383310955 4.2688948533
Fe 45.9773182325 28.7458110821 2.8923233744
Fe 47.3655586128 30.1641578785 4.3364431531
Fe 48.7797946895 28.6818463212 2.9083079729
Fe 50.2411681173 30.0774667898 4.2950484849
Fe 51.6343144575 28.6801886921 2.8360365671
Fe 53.0661039521 30.1439232116 4.3049544409
Fe 54.5249866453 28.7380848514 2.8267073414
Fe 55.9712401972 30.146110687 4.2477255234
Fe 0.0511216076 31.6260953898 2.8296185926
Fe 1.4155002299 32.9539447794 4.3003585468
Fe 2.8786273791 31.5312089282 2.8801461339
Fe 4.2704934578 33.0075968449 4.355938951
Fe 5.7879876492 31.5349768729 2.879586512
Fe 7.1328430658 32.9816225533 4.3039814788
Fe 8.5634140866 31.5282438099 2.8165037525
Fe 10.0526862034 32.9475693981 4.2733114632
Fe 11.4838494539 31.6083443196 2.8749971898
Fe 12.9370617453 33.0554081515 4.3488852436
Fe 14.3932760459 31.5530771828 2.8596126633
Fe 15.7552575766 32.9506948524 4.3595802459
Fe 17.218092228 31.599753114 2.8535989229
Fe 18.6710531372 33.034354376 4.2947863163
Fe 20.0358978227 31.5373080269 2.8571330001
Fe 21.5011380705 32.987195539 4.2886254544
Fe 22.9726324878 31.5794330679 2.8798329036
Fe 24.4241192769 32.9595879994 4.315419532
Fe 25.8341575895 31.525295085 2.8748887978
Fe 27.3144198848 33.0391535827 4.2685569852
Fe 28.6559537207 31.5607597217 2.8377679045
Fe 30.1271961823 33.0236341652 4.3006177904
Fe 31.6036434396 31.6013480147 2.8890132974
Fe 33.0415007794 32.9806717578 4.2473643643
Fe 34.4318001603 31.5770507288 2.832087311
Fe 35.9315385411 33.029864485 4.2862409518
Fe 37.3670162048 31.5128083151 2.9051946498
Fe 38.7386258872 32.9601391455 4.2778957159
Fe 40.1357732234 31.6174318557 2.8466748914
Fe 41.6432296572 33.0483355869 4.2907724819
Fe 43.0578167125 31.6131802802 2.8329093894
Fe 44.5246682087 32.9497591131 4.3223476203
Fe 45.927896665 31.5513806912 2.8711868944
Fe 47.3566508013 33.0466983278 4.252794639
Fe 48.8182152447 31.5994738964 2.8948864056
Fe 50.2419076698 33.0527401553 4.3174348258
Fe 51.6285692486 31.6038093691 2.9026584288
Fe 53.134415366 33.0615652013 4.267333724
Fe 54.5728246285 31.538847192 2.9140191635
Fe 56.0136519118 33.0602652492 4.2632286138
Fe 0.0522162652 34.4615810688 2.8170502718
Fe 1.394569829 35.8756651977 4.2962767143
Fe 2.8670566069 34.3850584937 2.8190173302
Fe 4.2929102817 35.8369369707 4.2613410318
Fe 5.6942850569 34.4737909127 2.9096083007
Fe 7.1456769935 35.8785706325 4.2615874617
Fe 8.6164741649 34.385719631 2.8850439109
Fe 10.0489704317 35.9150770695 4.294251648
Fe 11.5308810972 34.4863983577 2.8677041863
Fe 12.8801841825 35.8624936225 4.2598291464
Fe 14.3653713521 34.4955402458 2.8428430103
Fe 15.7591723787 35.874208574 4.2675790441
Fe 17.2104227677 34.4618353642 2.8572904029
Fe 18.6835528594 35.8442698651 4.3061220771
Fe 20.1240983912 34.4576773108 2.8669876414
Fe 21.4919578226 35.9170486643 4.2588315199
Fe 22.996815074 34.4632186829 2.862111557
Fe 24.4054294912 35.9300745017 4.3211608884
Fe 25.823642946 34.4930582915 2.8597342325
Fe 27.2975779734 35.8251076002 4.274251177
Fe 28.7428750592 34.4010884358 2.9037172704
Fe 30.0999346364 35.8642898935 4.2733368647
Fe 31.6271278616 34.496863674 2.8240276673
Fe 33.0008511753 35.8319555948 4.2864027737
Fe 34.4892260534 34.397750552 2.8798275158
Fe 35.8839891682 35.8669875721 4.280473485
Fe 37.3244192771 34.4051836616 2.9095597391
Fe 38.6898806012 35.8451091708 4.3288581839
Fe 40.162734089 34.3998373619 2.8194500075
Fe 41.6104374314 35.8674512955 4.3478725099
Fe 43.0612906733 34.4792659204 2.9041549112
Fe 44.4686747265 35.8667254666 4.2617336513
Fe 45.9710560788 34.4088689947 2.854860136
Fe 47.3875409862 35.8874597772 4.3402478404
Fe 48.7898601199 34.3935589181 2.9103100478
Fe 50.2702438274 35.8812250318 4.2499013216
Fe 51.6919199449 34.4035186597 2.9055367659
Fe 53.0990273697 35.8175952887 4.3574245255
Fe 54.5394786692 34.4484303757 2.8520273353
Fe 55.9936558278 35.916474119 4.298255809
Fe 0.0153301736 37.3080372815 2.9159450637
Fe 1.40959299 38.7796824116 4.2480718565
Fe 2.8194260294 37.3595211153 2.82788935
Fe 4.2552775064 38.7621912036 4.2591639286
Fe 5.7830947401 37.2577280399 2.8633936109
Fe 7.131599869 38.6973555789 4.2934102963
Fe 8.5668756079 37.2893160958 2.8131493371
Fe 10.0141273645 38.711272923 4.2663737003
Fe 11.4621182961 37.2950686221 2.890391875
Fe 12.9597032983 38.7446300883 4.3185307172
Fe 14.3760858595 37.3065808523 2.8998399855
Fe 15.7448214925 38.7073277314 4.2950934341
Fe 17.237262509 37.2770522983 2.8771513597
Fe 18.6602193746 38.7317391865 4.3156904849
Fe 20.1178287705 37.2576673919 2.9106098156
Fe 21.4800695739 38.7141440249 4.3548071488
Fe 23.0170906786 37.2964902966 2.859437042
Fe 24.3488169759 38.7338035924 4.3401147484
Fe 25.8095577584 37.3272688822 2.9123520935
Fe 27.233899427 38.7276642284 4.3321314894
Fe 28.752830694 37.3557072665 2.8390801626
Fe 30.1717865116 38.747324632 4.2847039109
Fe 31.5568608275 37.3414185218 2.8433039745
Fe 32.9825389746 38.7082973237 4.3161845548
Fe 34.4086248751 37.2862731581 2.8636834736
Fe 35.8868553815 38.6973292511 4.3166024889
Fe 37.328695153 37.320118013 2.8566694939
Fe 38.8005042417 38.7543390825 4.3200016156
Fe 40.1264381039 37.2797016401 2.877094953
Fe 41.5974149312 38.7789263749 4.2778538012
Fe 43.0553662547 37.2841495624 2.9253181395
Fe 44.4528648799 38.7661811775 4.2720475973
Fe 45.9091811942 37.3623368951 2.9095994444
Fe 47.3793034339 38.7277046451 4.3064107242
Fe 48.7649118718 37.2686567294 2.9092068548
Fe 50.1722345652 38.6964667171 4.3466047982
Fe 51.6136677161 37.2790617799 2.847400012
Fe 53.1514491523 38.7123798855 4.3511935764
Fe 54.5653363113 37.3168133109 2.8789158407
Fe 56.0142773825 38.6885080154 4.3563060847
Fe 0.0267298913 40.2147901288 2.8905705648
Fe 1.486353491 41.57531817 4.2796562687
Fe 2.8811997335 40.1481478468 2.8699364075
Fe 4.2679497572 41.5906317547 4.2561609329
Fe 5.6838741492 40.2169267494 2.9209226518
Fe 7.1498955676 41.5836406832 4.3042774239
Fe 8.6246570888 40.1393349149 2.8372797033
Fe 10.0865289797 41.6553822102 4.3445324317
Fe 11.5282675544 40.2199031779 2.8234093354
Fe 12.9023797799 41.6419964719 4.343769497
Fe 14.3250647825 40.1685187746 2.8334295777
Fe 15.7588343559 41.6107805444 4.3437810466
Fe 17.1979806917 40.1648485764 2.8344192615
Fe 18.6805685624 41.6060855283 4.3100631064
Fe 20.0802910055 40.2194544489 2.8255696341
Fe 21.5792482391 41.6433005833 4.2637691475
Fe 22.9406014882 40.1581300218 2.8515465477
Fe 24.3570322319 41.5921987015 4.3206299446
Fe 25.8219834558 40.222953121 2.864607827
Fe 27.2991622243 41.6022227991 4.2501714119
Fe 28.7133301472 40.1779902854 2.9206034853
Fe 30.104052088 41.6131889029 4.2822004762
Fe 31.5794131934 40.1584417129 2.9257104026
Fe 33.039538011 41.5914478453 4.3471193326
Fe 34.4705147632 40.2257595601 2.9000461396
Fe 35.8799550554 41.5906536155 4.3386389044
Fe 37.259469565 40.1585849873 2.9196381471
Fe 38.7448671914 41.569889676 4.3202598999
Fe 40.1741579842 40.1343280173 2.8627176399
Fe 41.608329823 41.6309912431 4.3192152315
Fe 43.0131825371 40.1870428244 2.8324436841
Fe 44.4781516967 41.6195222609 4.3239432795
Fe 45.9129505386 40.2070485439 2.8157992127
Fe 47.3556178552 41.5706622702 4.2684956574
Fe 48.8217970094 40.1800151227 2.912886502
Fe 50.2797488347 41.6208725823 4.3113578817
Fe 51.6578317819 40.1718042665 2.8364316657
Fe 53.1384295831 41.6391434078 4.3254161172
Fe 54.4961346331 40.1703090533 2.8983199953
Fe 55.9756818155 41.5590892034 4.293286177
Fe 57.3596538329 43.0598643892 2.8478086104
Fe 1.4602504989 44.53316887 4.3342340562
Fe 2.8322249315 42.999189258 2.9237573514
Fe 4.3185283484 44.4369198589 4.2601478539
Fe 5.7717979708 43.0316981995 2.9234021546
Fe 7.1988834524 44.5167883617 4.358106668
Fe 8.5900051461 43.0644506999 2.8690495732
Fe 10.0401326116 44.5067570671 4.3425116928
Fe 11.5058178371 43.037357362 2.8482378282
Fe 12.8606043025 44.4709442524 4.2941680867
Fe 14.2957919498 43.0284258967 2.8811109027
Fe 15.7689072538 44.5117001285 4.2580673752
Fe 17.2633717165 43.0602751107 2.8324932354
Fe 18.6379833943 44.4368828392 4.3355814225
Fe 20.1461161354 43.1042157844 2.8227964619
Fe 21.5484616196 44.4403321373 4.2872471607
Fe 23.0176424951 43.0023443836 2.8841204088
Fe 24.3647538853 44.5147014526 4.354894981
Fe 25.8273351949 43.0098455646 2.8798766656
Fe 27.2978971497 44.4763155262 4.3611626097
Fe 28.6502609471 43.0171007938 2.9099458989
Fe 30.1906724354 44.5087601977 4.3366822146
Fe 31.5246590286 43.0895041632 2.8741964885
Fe 33.0461590707 44.4525308276 4.2517844975
Fe 34.4736421291 43.0607871103 2.8134421179
Fe 35.840041482 44.4996774909 4.3089312909
Fe 37.2986364592 43.079225119 2.9250049848
Fe 38.7260759836 44.5216009024 4.334464292
Fe 40.131562874 43.0173069206 2.8832390088
Fe 41.5575063323 44.4953043166 4.3160718039
Fe 43.0672183588 43.0097436351 2.8232684798
Fe 44.4894546049 44.4519030862 4.3329984385
Fe 45.9331543616 43.02257833 2.8205983797
Fe 47.3121585253 44.4785246158 4.3258120075
Fe 48.7988702257 43.0154057303 2.8341032906
Fe 50.2369486818 44.5152367361 4.3549200603
Fe 51.6451940988 42.998914064 2.9271263941
Fe 53.052379084 44.4490892332 4.3072554599
Fe 54.5822770245 43.030127314 2.8367805872
Fe 55.9839391709 44.5070293916 4.2880974746
Fe 0.0440244703 45.8804033907 2.8773987147
Fe 1.4303972916 47.3166306891 4.3083857533
Fe 2.8700358316 45.8705404013 2.8610376534
Fe 4.261221765 47.3306296082 4.2482635352
Fe 5.6847550107 45.9113565074 2.8488740087
Fe 7.2092872166 47.3765002734 4.3303936075
Fe 8.621665208 45.8665462115 2.85343777
Fe 10.0011222124 47.3551033402 4.2662350655
Fe 11.4671356881 45.8883828723 2.8303616461
Fe 12.896466914 47.4008847195 4.2845623934
Fe 14.3725074369 45.9778044836 2.87797207
Fe 15.7696025091 47.3075850217 4.255745387
Fe 17.270167803 45.9201756753 2.892061159
Fe 18.6155295035 47.3206320282 4.3030108288
Fe 20.0707337107 45.8894378615 2.902442742
Fe 21.5248090082 47.3320586364 4.3034832761
Fe 22.9113949922 45.9752913647 2.8363288361
Fe 24.3471103292 47.3023839558 4.3212806707
Fe 25.8263150882 45.9323533382 2.8402814149
Fe 27.2900482171 47.3679655336 4.2944214191
Fe 28.7045407163 45.9407316739 2.8534544736
Fe 30.119423969 47.3945458371 4.3368505893
Fe 31.5124472833 45.8801946034 2.9246628045
Fe 32.9666051998 47.3715689208 4.2605513892
Fe 34.4016583372 45.9370483174 2.8610176601
Fe 35.9061695809 47.3577120082 4.2848085003
Fe 37.2796258202 45.8961880984 2.8738746818
Fe 38.7193951998 47.3180845358 4.2789326413
Fe 40.1860215029 45.8840545705 2.8821823281
Fe 41.6542926377 47.3017614721 4.3029754869
Fe 43.0434855558 45.8626300826 2.8685706478
Fe 44.4311418512 47.4073017901 4.2485209983
Fe 45.8968438214 45.9452725654 2.8441614108
Fe 47.4003446483 47.3321123357 4.2834676805
Fe 48.8271312781 45.9511892416 2.8995467523
Fe 50.2764242326 47.3104418402 4.2794695005
Fe 51.6839544662 45.8906661361 2.908470543
Fe 53.043950575 47.364141949 4.2990804212
Fe 54.5241277807 45.9409606114 2.8528298795
Fe 55.9829556294 47.3002209619 4.296311988
Fe 0.0161471929 48.7966429097 2.9065816513
Fe 1.4711908888 50.2798821768 4.2601723029
Fe 2.8531477505 48.7660505514 2.8733732451
Fe 4.272457882 50.239398679 4.3366837575
Fe 5.7901339626 48.8106455358 2.8435433928
Fe 7.2302330723 50.2734617385 4.2981381496
Fe 8.6153730812 48.7364566842 2.8126563458
Fe 10.09397277 50.2613635284 4.2866319982
Fe 11.4411365005 48.771240445 2.9118832175
Fe 12.9357249039 50.2726812621 4.3017128513
Fe 14.3901018104 48.7515558898 2.9232579747
Fe 15.784479677 50.2300525626 4.3255586755
Fe 17.2359695301 48.8190295693 2.832866612
Fe 18.6070747414 50.2205011277 4.3482713767
Fe 20.066612613 48.7334403163 2.8646374982
Fe 21.5453605738 50.2479633054 4.2693036587
Fe 22.9467596908 48.8440569812 2.8895907262
Fe 24.3818018893 50.2038806536 4.2837521827
Fe 25.8628683397 48.7615171965 2.9098077046
Fe 27.2219952973 50.1701396631 4.3278930875
Fe 28.6845445733 48.8339077514 2.8885761219
Fe 30.1395987883 50.2637375312 4.2926712788
Fe 31.536948766 48.8010746395 2.8323563368
Fe 33.0064429945 50.2611802508 4.3281922953
Fe 34.4836827789 48.8337111816 2.8637182634
Fe 35.8971320462 50.185509452 4.2729507926
Fe 37.2679327021 48.8353096521 2.8754568647
Fe 38.7962286015 50.1772473858 4.3338472133
Fe 40.1297487073 48.7831675062 2.8934872693
Fe 41.575026782 50.1813315126 4.3546608398
Fe 43.0593605109 48.8325139017 2.8797674933
Fe 44.4518169412 50.1677406841 4.3068164368
Fe 45.9262988797 48.772971981 2.8430146128
Fe 47.299808197 50.1873289876 4.3064851318
Fe 48.8350745139 48.7894748997 2.8401498311
Fe 50.2117913111 50.1807969339 4.3531395659
Fe 51.6315349127 48.8104034884 2.8913475238
Fe 53.125200879 50.1982718252 4.3097622409
Fe 54.5509681936 48.7535055541 2.8917819955
Fe 55.940861567 50.2688209925 4.3190603157
Fe 57.3687043637 51.6900540041 2.9035143859
Fe 1.4269718618 53.0952073819 4.3449761161
Fe 2.9149207077 51.6291301573 2.9095640068
Fe 4.2679302601 53.0826359946 4.3597015419
Fe 5.7180454638 51.7172345372 2.9211082268
Fe 7.1718712044 53.1375710658 4.2848591113
Fe 8.6646091739 51.6995144493 2.8643262757
Fe 10.038118931 53.0736220746 4.352046525
Fe 11.453838841 51.628393181 2.8363194355
Fe 12.8665252123 53.0561057184 4.2799728008
Fe 14.3429597056 51.6334732823 2.892161761
Fe 15.7672928944 53.127746695 4.3500128512
Fe 17.2774346638 51.6426372711 2.8683619818
Fe 18.669749748 53.0870739934 4.343307288
Fe 20.0930414215 51.6079155639 2.9204429766
Fe 21.5394902194 53.0721626761 4.3101359685
Fe 22.9262063228 51.6048752894 2.8210494084
Fe 24.3651272341 53.1300686725 4.2696972887
Fe 25.88703797 51.699791496 2.8637075199
Fe 27.2558064988 53.064301495 4.3566996073
Fe 28.6892460854 51.6746781712 2.8829089019
Fe 30.0793235666 53.041814902 4.338308124
Fe 31.5348027346 51.6702326981 2.8246971266
Fe 32.9499571225 53.079825423 4.3336277381
Fe 34.4959451439 51.7034477974 2.8773512659
Fe 35.83481104 53.1435703457 4.3101899532
Fe 37.3068685196 51.6062115244 2.906173448
Fe 38.7979498752 53.1277725162 4.3346832866
Fe 40.1620630301 51.6815245877 2.9073484594
Fe 41.6306328119 53.1382863873 4.330040781
Fe 43.0190676122 51.6842207838 2.8302752101
Fe 44.4982286391 53.0796708112 4.3313232694
Fe 45.9308220991 51.6268954143 2.9076478961
Fe 47.3347786827 53.087423537 4.2654181244
Fe 48.8226691062 51.6944937584 2.9191599123
Fe 50.1937040562 53.1353414623 4.2946998875
Fe 51.646528434 51.6046755622 2.9179691291
Fe 53.0659073881 53.1293358705 4.3228836714
Fe 54.5623337627 51.7150510954 2.8804785435
Fe 55.94789768 53.0576753211 4.2770509857
Fe 0.0427119604 54.5126235288 2.8589928382
Fe 1.3893906055 55.9239865389 4.3311014472
Fe 2.8924457409 54.485051502 2.855298929
Fe 4.3031538804 56.0151873214 4.2759482987
Fe 5.7572854781 54.5043413968 2.8824931911
Fe 7.2027821962 55.9419630199 4.2634711226
Fe 8.5738768222 54.5477342639 2.8697187502
Fe 10.0139070356 55.966488186 4.2925968821
Fe 11.4447967265 54.4889949937 2.8513200378
Fe 12.9006493359 55.9226581843 4.2595821208
Fe 14.3488536925 54.5186950212 2.8149732437
Fe 15.7617440859 55.9818987108 4.2793750002
Fe 17.2703624253 54.565159366 2.8445998238
Fe 18.7039684915 55.931447862 4.2900399286
Fe 20.1155334801 54.4755871505 2.8303154597
Fe 21.5443584522 55.9551262677 4.2892634258
Fe 22.9723049734 54.5264874921 2.8790927966
Fe 24.4495175346 55.9640143591 4.3261289374
Fe 25.7981482191 54.5060207884 2.8938803512
Fe 27.2081438498 55.9790448526 4.3312093994
Fe 28.7025754126 54.5459438531 2.9227736317
Fe 30.1624984765 55.9202335568 4.2644173073
Fe 31.5167991254 54.5426747037 2.8407090532
Fe 32.9486777528 55.9724902775 4.325142237
Fe 34.4362577942 54.5597175828 2.8387561034
Fe 35.9076113435 55.9783570994 4.3210254752
Fe 37.3173349984 54.5548384526 2.8879983821
Fe 38.79764034 55.916086189 4.3052574021
Fe 40.1874304951 54.5386456855 2.8943006538
Fe 41.5728656302 55.9176245289 4.2713272997
Fe 43.0656263241 54.5215454381 2.86648334
Fe 44.5042347455 55.9553339143 4.2572128922
Fe 45.9755267158 54.5424873034 2.8723969776
Fe 47.3593649903 55.9347641462 4.306731707
Fe 48.8362558927 54.5690065922 2.8230675372
Fe 50.2411232751 55.9762363599 4.3542569673
Fe 51.693436548 54.5227882896 2.8620771664
Fe 53.0906744578 55.9815255276 4.3470995395
Fe 54.5185925197 54.4761654326 2.9071356049
Fe 55.9836656278 55.9476179184 4.3452952231
Fe 0.0068866576 57.3927656981 5.7623373446
Fe 1.3821667205 1.4791496208 7.1402523081
Fe 2.8154976053 0.0289144895 5.7623583753
Fe 4.2661052033 1.4253728925 7.2028740172
Fe 5.7423513448 57.3923305714 5.75375562
Fe 7.1649249042 1.4842759357 7.1693596597
Fe 8.5989964723 0.012238286 5.7598433775
Fe 10.0564263981 1.4202711794 7.1983845149
Fe 11.4511773614 57.3614161336 5.7602169755
Fe 12.8884235516 1.4202240073 7.1892906051
Fe 14.3093245774 0.0113832586 5.769790093
Fe 15.8110079422 1.3866416557 7.1326562596
Fe 17.2636708164 57.3509487508 5.77783931
Fe 18.6119220707 1.4196235439 7.1317614182
Fe 20.0804348767 57.351155992 5.7099700547
Fe 21.5614944081 1.4789668137 7.1622688196
Fe 22.9150270129 57.3623743716 5.7175322129
Fe 24.4078272648 1.4603287685 7.1958689425
Fe 25.8848388942 0.0171685331 5.7671094512
Fe 27.24495778 1.3951352373 7.1907500841
Fe 28.6505420497 57.3890894684 5.7642392928
Fe 30.0825858321 1.402373899 7.1405726186
Fe 31.5423127447 57.3477883184 5.7298119724
Fe 32.9624606676 1.3869570952 7.1823207659
Fe 34.4866665425 57.3643861226 5.7060361749
Fe 35.9000201375 1.446242052 7.2139084652
Fe 37.313680761 3.86646483e-04 5.7404661756
Fe 38.7756585197 1.433282082 7.12040325
Fe 40.2139050346 0.0368473772 5.7060022244
Fe 41.6216747332 1.4144109066 7.2024775331
Fe 43.0612748599 57.3994203275 5.6856261504
Fe 44.529821501 1.3856236001 7.1278148626
Fe 45.9323973498 0.035577657 5.7319843191
Fe 47.4081596871 1.4833290734 7.2236108225
Fe 48.8123132124 0.0398059635 5.7742080265
Fe 50.1930848262 1.4184921226 7.1549281571
Fe 51.6089033329 0.037081744 5.7553681154
Fe 53.1193821481 1.4073632462 7.1823803211
Fe 54.4755196523 57.3676507808 5.7303791985
Fe 55.9960406407 1.4329054473 7.1852003514
Fe 0.0313721426 2.8408860679 5.7242698593
Fe 1.436177939 4.2762625617 7.202167909
Fe 2.8564713043 2.8562557691 5.7061280564
Fe 4.2549672359 4.2482170359 7.1371411621
Fe 5.7883048445 2.8490916023 5.7414609382
Fe 7.2215703396 4.2998416007 7.1933915638
Fe 8.5827703307 2.8607698333 5.7873911842
Fe 9.9888910667 4.3311713692 7.1305444974
Fe 11.4271911839 2.8592883708 5.7248250217
Fe 12.9553296275 4.2578816425 7.1197097605
Fe 14.4042845549 2.8245466411 5.6976336061
Fe 15.7595054208 4.3196078609 7.1533627369
Fe 17.1788082166 2.8527730368 5.7208868638
Fe 18.6046829918 4.3377789106 7.141578487
Fe 20.0752682428 2.8991105953 5.7868904348
Fe 21.573146285 4.2563972613 7.1725258112
Fe 22.9790042078 2.8402651975 5.7457182831
Fe 24.361079912 4.3539880147 7.1607651796
Fe 25.8496814312 2.9134884345 5.7235125196
Fe 27.2415444788 4.2689595287 7.1752260048
Fe 28.6730476599 2.868712326 5.6829035794
Fe 30.094312917 4.2991039246 7.1414195175
Fe 31.553507498 2.8778477054 5.7314945645
Fe 32.9589972674 4.3408754367 7.2165717603
Fe 34.3852571528 2.8434198954 5.7469460262
Fe 35.8405307511 4.2648946966 7.1892158874
Fe 37.3130248119 2.8417110832 5.6945574372
Fe 38.769488349 4.3319911559 7.1717503112
Fe 40.1901994664 2.8716053716 5.7166785404
Fe 41.6417417092 4.2527303589 7.1895772893
Fe 43.0449550042 2.8463966227 5.684681515
Fe 44.4826755486 4.2914331804 7.1708339899
Fe 45.8922931212 2.9138255112 5.7162592785
Fe 47.3384014482 4.2478115317 7.1626558495
Fe 48.7841307877 2.8432685362 5.7370153466
Fe 50.1889445551 4.3149314934 7.2214744286
Fe 51.6762560841 2.8329731183 5.7366840201
Fe 53.0731061513 4.2534264158 7.1930536141
Fe 54.4795889825 2.8869971451 5.723719108
Fe 55.90750676 4.3024441032 7.1420108437
Fe 57.3655384236 5.7464983323 5.7613616825
Fe 1.4878154979 7.1244650984 7.1344971229
Fe 2.8135032497 5.7045509334 5.7872135791
Fe 4.3535125228 7.1955435138 7.1687048855
Fe 5.7454249119 5.7739851592 5.6843868708
Fe 7.1939734938 7.1352165723 7.1638071724
Fe 8.5784144905 5.7845895204 5.7530019375
Fe 10.03777168 7.1846815997 7.2024605515
Fe 11.4320472176 5.7595317537 5.7316995027
Fe 12.868771172 7.1724422047 7.2210065268
Fe 14.4002754144 5.741494298 5.7622829524
Fe 15.8115583903 7.1629806967 7.1218166243
Fe 17.2360443575 5.794516896 5.6950430589
Fe 18.6339677062 7.1704629685 7.1462601386
Fe 20.1095979243 5.7085873327 5.7097348327
Fe 21.5442987618 7.1966919983 7.135683818
Fe 23.0017457516 5.7035328312 5.7029027168
Fe 24.3469819937 7.1512785081 7.1955466416
Fe 25.8578858605 5.7682095458 5.7418565153
Fe 27.2550957791 7.1847433384 7.1872510302
Fe 28.6855609497 5.6849279775 5.7121451302
Fe 30.1386398202 7.1614576174 7.1547112322
Fe 31.5601928974 5.7463591257 5.7556650724
Fe 33.0296870546 7.1337711156 7.1838371102
Fe 34.4663318757 5.7405413853 5.7394606009
Fe 35.9189733708 7.1363475536 7.1981370477
Fe 37.3344421078 5.7481506109 5.7290289944
Fe 38.7750423223 7.1436974258 7.1714136131
Fe 40.1565911927 5.7819775374 5.7775387468
Fe 41.648057571 7.1191035983 7.1939844637
Fe 42.9992987842 5.6826299597 5.6992399346
Fe 44.4875487891 7.1219359076 7.1181169376
Fe 45.943211014 5.7225021918 5.7110126071
Fe 47.3968205331 7.15462276 7.17416176
Fe 48.8437745608 5.708828701 5.6985567969
Fe 50.2752389166 7.1905988103 7.228332883
Fe 51.7176497759 5.7961893028 5.7630848706
Fe 53.1047833615 7.1254518973 7.1896336103
Fe 54.4806791023 5.7448436507 5.7515351971
Fe 55.9955240277 7.2319137769 7.1387339493
Fe 0.0212535373 8.5697340771 5.7020709862
Fe 1.4574481656 10.0133312093 7.1588060892
Fe 2.8909812833 8.6246038538 5.7003502869
Fe 4.3456784568 10.0347954729 7.2006440945
Fe 5.7117067915 8.5697695991 5.7122759156
Fe 7.1660023257 10.0266521336 7.1702989704
Fe 8.6057536704 8.5799056671 5.7819719159
Fe 10.0651374553 9.987476815 7.2011297454
Fe 11.4748988043 8.5880105785 5.7733406768
Fe 12.9547689893 10.0215816474 7.1666142725
Fe 14.2961089894 8.5625034283 5.7367409518
Fe 15.779026116 9.9956288004 7.2143982021
Fe 17.214485278 8.5622580316 5.7058596878
Fe 18.6468815627 10.0124733168 7.1810575341
Fe 20.082194526 8.6062129517 5.7471210393
Fe 21.5778314334 10.0519674818 7.1957323106
Fe 22.96905557 8.6016111118 5.6845962228
Fe 24.400750438 10.0552118239 7.2025022203
Fe 25.811880702 8.5638628672 5.7557804486
Fe 27.2667312847 10.0885472657 7.2010555754
Fe 28.6522190181 8.6258860525 5.7212440997
Fe 30.1396370093 10.0967750647 7.160018818
Fe 31.6240725788 8.6182013268 5.7540928883
Fe 33.0222668062 10.0104163057 7.229732325
Fe 34.3890092736 8.5912745556 5.7554165057
Fe 35.8615347809 10.0617250796 7.2246274857
Fe 37.2645023174 8.6280514546 5.7099134697
Fe 38.7058854877 10.0567542408 7.2083281208
Fe 40.1233287149 8.6102260445 5.7631744347
Fe 41.6448623348 10.0681434101 7.1675792282
Fe 43.0414443634 8.6281875815 5.7900521199
Fe 44.4793981036 10.0975234369 7.1624655184
Fe 45.9026758251 8.5677152745 5.7057884374
Fe 47.3924638258 10.0419287411 7.1497200321
Fe 48.7896680149 8.5957037746 5.7465273671
Fe 50.1684432314 9.9982784705 7.160318499
Fe 51.671979524 8.5668342514 5.720165824
Fe 53.0938938039 10.0062817543 7.215519003
Fe 54.5755436559 8.5772404971 5.7760191798
Fe 55.9430860513 10.0346799164 7.1750500566
Fe 0.019370502 11.5057345914 5.6870510696
Fe 1.4874965098 12.9211819227 7.1396266113
Fe 2.8426339016 11.4409376809 5.7879156992
Fe 4.3243281167 12.916528716 7.1542990136
Fe 5.733065124 11.5301436061 5.7204789592
Fe 7.2313358196 12.9010375888 7.1677259458
Fe 8.6385525753 11.5064188874 5.7837844289
Fe 9.9944194749 12.9724328461 7.2057670704
Fe 11.467221908 11.4577626738 5.6987184601
Fe 12.9232308227 12.9573686346 7.1704126727
Fe 14.3756738291 11.4801355104 5.6894664355
Fe 15.7282177811 12.958653888 7.1318471677
Fe 17.2607108535 11.4935908994 5.7808725593
Fe 18.7115777231 12.9517120833 7.1338920133
Fe 20.0729167795 11.4338222839 5.7111046704
Fe 21.5167187146 12.8681109858 7.1293282088
Fe 22.9416030912 11.4937268198 5.7206068496
Fe 24.4501885436 12.8994570355 7.11816986
Fe 25.7954013963 11.469435121 5.6898693924
Fe 27.3127811439 12.8783962745 7.1633600046
Fe 28.6786965853 11.4987338329 5.7897085852
Fe 30.0897946255 12.8943786248 7.2029901633
Fe 31.5588918973 11.498675443 5.7430873902
Fe 33.0204692174 12.9201120862 7.2056325641
Fe 34.4972449344 11.4551986951 5.7592203495
Fe 35.9243202919 12.8656385262 7.1849463136
Fe 37.3064199681 11.4523133549 5.7836006648
Fe 38.7761690254 12.9347002904 7.1550009219
Fe 40.1739843962 11.5291936758 5.795993176
Fe 41.6303179028 12.8672156478 7.2132702871
Fe 43.0613445971 11.5007547259 5.7268191672
Fe 44.48824414 12.9307699962 7.1205788122
Fe 45.8762244355 11.5061489793 5.6862499955
Fe 47.3191495795 12.9459093559 7.1200722611
Fe 48.8346565513 11.5358423005 5.7874825384
Fe 50.1851112022 12.913234321 7.1464127506
Fe 51.6672226846 11.4332601162 5.7275197386
Fe 53.0381444885 12.9563609547 7.227495443
Fe 54.4826670417 11.444250087 5.7189907713
Fe 56.016934603 12.9318070163 7.1508954518
Fe 0.0464585893 14.3543354215 5.715406884
Fe 1.4266650765 15.790309963 7.1977102761
Fe 2.8757905607 14.4069265157 5.7587960595
Fe 4.3147340928 15.7340727918 7.181971495
Fe 5.7361458109 14.3288500761 5.737574376
Fe 7.2100549577 15.7445103405 7.190710042
Fe 8.6093412347 14.3406005406 5.6947678854
Fe 10.0940595666 15.8261575224 7.1248850541
Fe 11.5033167615 14.3386047939 5.7508352682
Fe 12.9694817497 15.8331474859 7.1210668871
Fe 14.4007377276 14.3121467404 5.7879456016
Fe 15.7597877044 15.7914047443 7.1728009611
Fe 17.247824054 14.3862971562 5.697331091
Fe 18.6505322271 15.8388607661 7.1175327665
Fe 20.1058301027 14.2958488273 5.7724126933
Fe 21.5350760812 15.76740462 7.1253375459
Fe 22.9292450697 14.3082593891 5.7268993619
Fe 24.3760571254 15.8057391326 7.1310784453
Fe 25.8011134728 14.3655738651 5.7126637937
Fe 27.2332835715 15.7320836112 7.1842094829
Fe 28.6488729153 14.3019853599 5.7308855144
Fe 30.1299183924 15.8237877425 7.1983600909
Fe 31.6116850794 14.3864159355 5.7413163588
Fe 33.0347844677 15.7472117327 7.1768052328
Fe 34.4668155402 14.4003611445 5.7117309252
Fe 35.8715286533 15.7930597118 7.1295050612
Fe 37.2732212237 14.3481121517 5.7400950056
Fe 38.7632329214 15.8073074316 7.1347419596
Fe 40.2334078937 14.3763287133 5.7008173993
Fe 41.6030026868 15.8247330787 7.1834140367
Fe 43.0058541034 14.356432199 5.696867063
Fe 44.4686422512 15.7949544164 7.212591951
Fe 45.8745191921 14.3639020502 5.7875251736
Fe 47.3249619527 15.8085598019 7.1548380549
Fe 48.8029712503 14.2970894166 5.7368439097
Fe 50.2350676448 15.8304851863 7.1287513752
Fe 51.627632428 14.3671419772 5.7387936957
Fe 53.0865491194 15.7313839569 7.2075402621
Fe 54.5433133704 14.3148457396 5.7053088752
Fe 55.9523716251 15.7823565368 7.1909315651
Fe 0.0436091884 17.256582865 5.7745346387
Fe 1.4399220168 18.6608090218 7.1834832408
Fe 2.8855047811 17.2309077168 5.7254187507
Fe 4.268743828 18.617039034 7.2252613293
Fe 5.7629522021 17.2245023479 5.7696438989
Fe 7.2015556513 18.6520995331 7.1739231932
Fe 8.5908083664 17.1801621531 5.7606091408
Fe 10.0699757571 18.6222946508 7.150156733
Fe 11.433700476 17.2257805234 5.6890663778
Fe 12.9236291654 18.6232724705 7.2285325082
Fe 14.403407208 17.1895965757 5.7571372463
Fe 15.7665321547 18.6809338422 7.1708923041
Fe 17.2679555198 17.1952892107 5.6951892236
Fe 18.7017902841 18.668228372 7.2302467979
Fe 20.1239015312 17.2402317108 5.7252701022
Fe 21.5619791776 18.6421044271 7.1593450901
Fe 22.9122040693 17.1728154433 5.7257466515
Fe 24.4144623581 18.6937810488 7.1436698275
Fe 25.8497432935 17.2034536572 5.765266087
Fe 27.23640575 18.6872817415 7.1388385073
Fe 28.6857030899 17.2387874986 5.7370340157
Fe 30.1576271079 18.6077759542 7.1394664664
Fe 31.6106636876 17.2009906422 5.7656851832
Fe 32.9876334495 18.6175869011 7.1213233542
Fe 34.4860697109 17.2489599819 5.6969831901
Fe 35.9268866687 18.6337554011 7.1807251202
Fe 37.2729874564 17.2146267913 5.7422236874
Fe 38.7139218604 18.702540469 7.118433056
Fe 40.2169353139 17.2607808127 5.6903440875
Fe 41.6282479958 18.6074223046 7.1261611077
Fe 42.9941966141 17.2570737317 5.6889445744
Fe 44.4924002592 18.6633369158 7.1810207884
Fe 45.9445645136 17.25757635 5.738600428
Fe 47.393217326 18.6082169226 7.2289093186
Fe 48.7425258941 17.2326018447 5.7850972813
Fe 50.2813051162 18.6862005852 7.1767630781
Fe 51.6131993603 17.1672455475 5.7259467889
Fe 53.1518817211 18.7044351619 7.2139406746
Fe 54.5608550989 17.2097965272 5.7610851338
Fe 55.9401473855 18.6406127822 7.1353919753
Fe 57.3921094689 20.0660939998 5.683225363
Fe 1.4080577656 21.5719430872 7.2250749304
Fe 2.8393026693 20.0662983522 5.7290009485
Fe 4.2758439208 21.5724057717 7.1221209133
Fe 5.7334099092 20.0596467296 5.785583387
Fe 7.2314822357 21.5677877712 7.2276333539
Fe 8.5798164533 20.0579479875 5.7714727323
Fe 10.0649669513 21.517351737 7.2051196479
Fe 11.4700586506 20.0688461695 5.7613208881
Fe 12.9000399351 21.5121152208 7.2305113493
Fe 14.3008635209 20.075110473 5.7727448578
Fe 15.7943625593 21.4891322406 7.2132983291
Fe 17.2602625599 20.1025297377 5.7051776618
Fe 18.6395651088 21.531684464 7.1273301198
Fe 20.1300200001 20.1117219667 5.7279578092
Fe 21.5213112488 21.5059006509 7.1565768356
Fe 22.9937281452 20.1085707352 5.7010529681
Fe 24.4376769996 21.4770296006 7.1280338846
Fe 25.8212636136 20.135615121 5.7382498054
Fe 27.3208446245 21.5061024372 7.148835874
Fe 28.7065457529 20.0760401671 5.693093772
Fe 30.102644566 21.5611748576 7.1455770299
Fe 31.5749209225 20.097183634 5.7698091415
Fe 32.986893619 21.5325428564 7.1266879771
Fe 34.4571006288 20.0888812421 5.793790288
Fe 35.8640400256 21.4761963297 7.1797037628
Fe 37.3204815991 20.0578294917 5.7763526481
Fe 38.7568518558 21.4748091494 7.216941416
Fe 40.1789660497 20.0841707648 5.7146041595
Fe 41.6027410761 21.5230850816 7.1958795193
Fe 43.0148355325 20.0677829721 5.7570525022
Fe 44.4825942646 21.4907668375 7.1574705631
Fe 45.8882550479 20.1293151772 5.7552213695
Fe 47.3936986768 21.5424631264 7.1675719624
Fe 48.7745982003 20.1425444308 5.7684067898
Fe 50.2208811188 21.5737818281 7.1309174807
Fe 51.7116687902 20.1279158153 5.7499019982
Fe 53.0532937595 21.5319123903 7.1790605522
Fe 54.5069430688 20.0692067367 5.7847589691
Fe 55.94677583 21.5136967082 7.2322221521
Fe 0.0025352286 22.9745959071 5.7053885331
Fe 1.4250856268 24.3916141187 7.1312617755
Fe 2.8392148456 22.9791721249 5.697876975
Fe 4.3603357829 24.3800549929 7.1741352127
Fe 5.7296222646 22.94170908 5.7159534944
Fe 7.1403183854 24.4278530944 7.1647027277
Fe 8.6214497493 23.0079394267 5.7106866181
Fe 10.0409736403 24.3643129065 7.1524499133
Fe 11.4852257606 22.9726308566 5.7198498323
Fe 12.9504174406 24.3766280105 7.2050807315
Fe 14.3440322801 22.9387138073 5.7498703116
Fe 15.8354755191 24.4149682487 7.2313498067
Fe 17.1784658555 22.9574007534 5.7424176326
Fe 18.6878545596 24.4387909525 7.1528456709
Fe 20.1336350267 22.984529071 5.7417883597
Fe 21.512402604 24.4428162085 7.1255189251
Fe 22.9373396368 22.9115551878 5.7121930498
Fe 24.3781656199 24.4222566359 7.1567227449
Fe 25.8392738878 22.9803390623 5.763873483
Fe 27.3140192256 24.3389001678 7.2006662154
Fe 28.7525121962 22.9582496021 5.7485178145
Fe 30.1471507318 24.3598060157 7.1695962003
Fe 31.5416790597 23.0045292 5.7354869277
Fe 32.9861327788 24.4203888115 7.1266676509
Fe 34.3841393962 22.9959263656 5.7352839743
Fe 35.8365572418 24.3802132912 7.2286461593
Fe 37.3273583649 22.9978339832 5.7292544814
Fe 38.712542246 24.4159766694 7.1682155535
Fe 40.2271375668 22.9256135257 5.7639529903
Fe 41.6230600646 24.4526247592 7.1436193541
Fe 43.0369560079 23.0129574598 5.7369986691
Fe 44.4518328129 24.4297030839 7.1606090416
Fe 45.9667097216 22.9240829494 5.6889354613
Fe 47.3684627787 24.4427849642 7.1744019779
Fe 48.7875085588 22.9923495644 5.7311025371
Fe 50.1678564457 24.3859304436 7.1220133249
Fe 51.6467169996 22.9958663077 5.7520163973
Fe 53.1043353047 24.4165168966 7.1250416326
Fe 54.4755168872 22.9471404379 5.7646465598
Fe 55.9284190176 24.4411507788 7.1532917557
Fe 0.026272053 25.8866836319 5.7773709843
Fe 1.4742408976 27.2206242901 7.1700936132
Fe 2.8252391868 25.8093525611 5.7078873122
Fe 4.2726629432 27.2806357514 7.2187677658
Fe 5.7862109765 25.8094505749 5.7773672608
Fe 7.1978648318 27.2097407447 7.2166229759
Fe 8.6552315613 25.7896208323 5.7856983547
Fe 10.0307601473 27.2339211508 7.1600406842
Fe 11.469327377 25.785393832 5.7915290848
Fe 12.9479349041 27.2950263864 7.1481059853
Fe 14.313526041 25.8832404809 5.790404016
Fe 15.7615309119 27.232277084 7.2252308958
Fe 17.1682340599 25.8668051938 5.7694070752
Fe 18.6169091969 27.3038873775 7.130239003
Fe 20.1323822621 25.824761258 5.7533386547
Fe 21.5346988691 27.2756419516 7.1247170927
Fe 22.9866753943 25.8287124209 5.6933785139
Fe 24.4322050049 27.3144547143 7.1565302812
Fe 25.8434795599 25.7744887166 5.7745508149
Fe 27.3205840498 27.2164738494 7.1273252962
Fe 28.6850942346 25.8720680664 5.7772893111
Fe 30.1481502783 27.29884449 7.1612075579
Fe 31.6237658529 25.8691765261 5.7056603547
Fe 33.034406314 27.2946855066 7.2106481155
Fe 34.4321642874 25.8374917109 5.7075639002
Fe 35.8493101116 27.2175942472 7.228705714
Fe 37.2663669926 25.8069937892 5.7022896225
Fe 38.7507681239 27.2767290119 7.1566613144
Fe 40.1504346862 25.777106881 5.7297618579
Fe 41.6584599009 27.2736090369 7.1346086699
Fe 43.025017326 25.8235452579 5.6858133047
Fe 44.4345256714 27.2718537932 7.2187236715
Fe 45.901708511 25.7726839222 5.7173316134
Fe 47.3787914779 27.3135217447 7.1851579866
Fe 48.8307564513 25.7916959457 5.7177002429
Fe 50.2808461428 27.2860482165 7.1204269714
Fe 51.6811901009 25.7888832147 5.7628603708
Fe 53.1073578246 27.2505006931 7.1529473235
Fe 54.4926876652 25.8679438528 5.7740587233
Fe 55.9104572861 27.2281314901 7.1682123037
Fe 0.0273704325 28.6838656707 5.7565161574
Fe 1.4485957743 30.1052474818 7.170559295
Fe 2.8467337804 28.6852226026 5.7155596402
Fe 4.3461652361 30.1723391896 7.2238830539
Fe 5.7813807477 28.7300468298 5.7580281246
Fe 7.1853588204 30.1630681782 7.1963402177
Fe 8.6085062627 28.7176174778 5.7324483539
Fe 10.101636961 30.1452524154 7.149045648
Fe 11.4651172253 28.7398534989 5.7476201314
Fe 12.8875257062 30.1038438115 7.2022733503
Fe 14.3237598594 28.6607144756 5.741938181
Fe 15.7801256633 30.1539590271 7.2041217702
Fe 17.2255909075 28.6758574386 5.7694475362
Fe 18.7057548084 30.1015493335 7.1553638556
Fe 20.1395321219 28.7292891049 5.7415329932
Fe 21.5424189166 30.1316255884 7.211502246
Fe 22.9576789006 28.7577594984 5.777993393
Fe 24.3807794327 30.077621858 7.1815006925
Fe 25.8745357789 28.7512602367 5.7015499099
Fe 27.2718950027 30.1800392142 7.226918268
Fe 28.6683763622 28.6788547921 5.7698229551
Fe 30.1180547248 30.0976786421 7.1382141271
Fe 31.5800360512 28.6752438404 5.7840744115
Fe 32.980155206 30.1794566207 7.2076904414
Fe 34.4384132473 28.7426641421 5.7550346873
Fe 35.8491773166 30.135129828 7.1558916628
Fe 37.2817606463 28.7063786622 5.7496049488
Fe 38.7895999153 30.1410547084 7.1723122609
Fe 40.1521455735 28.7246876346 5.7268807175
Fe 41.6056826493 30.1333137963 7.1804789882
Fe 43.0603945929 28.7413542499 5.7122735335
Fe 44.525078697 30.099017924 7.2082172935
Fe 45.9515631568 28.6776672962 5.7759935199
Fe 47.4081650997 30.0844103075 7.1518908222
Fe 48.7624002611 28.6881807286 5.715419986
Fe 50.2294471236 30.1227809655 7.1692617806
Fe 51.690695246 28.6467278431 5.7781253886
Fe 53.1202888322 30.1896236092 7.1684091605
Fe 54.5864648442 28.6809732008 5.7490976729
Fe 56.0123765728 30.1197381376 7.1859726219
Fe 0.0514052458 31.5459490667 5.7604076336
Fe 1.3915811762 33.0147699851 7.1264808189
Fe 2.8857601929 31.5886717465 5.7018126961
Fe 4.3564714843 33.001763813 7.2011582119
Fe 5.6915269758 31.5209438691 5.7616078235
Fe 7.1813434654 33.0057668182 7.1314421584
Fe 8.5677790398 31.5927245149 5.7058763074
Fe 10.0888887122 32.9571390563 7.1985539073
Fe 11.5102729416 31.5322056834 5.7469081391
Fe 12.956198403 33.0397908469 7.224707294
Fe 14.3740081081 31.6050009117 5.7816973767
Fe 15.8030884631 33.041848492 7.141051133
Fe 17.2062802803 31.5791655063 5.7319803019
Fe 18.6190348273 32.9505227857 7.1570045058
Fe 20.1032345827 31.5873668461 5.7006159127
Fe 21.4989127002 32.9527086175 7.1173162399
Fe 22.9426168253 31.6231489383 5.6873251658
Fe 24.3493314174 32.9477184008 7.1800794431
Fe 25.7879123852 31.514232888 5.7550182264
Fe 27.2414416877 33.0329158956 7.1493956594
Fe 28.6702626999 31.616564227 5.7335374418
Fe 30.1271139743 32.9852196535 7.2073125579
Fe 31.5878746581 31.5162694344 5.7297162396
Fe 33.0290271246 32.9528862052 7.1385922516
Fe 34.4725372845 31.538903082 5.7212862097
Fe 35.8576580566 32.9544078776 7.1286242781
Fe 37.2714650489 31.5935579974 5.7020884111
Fe 38.6961802844 33.0232326147 7.163583238
Fe 40.1771395105 31.5413776916 5.7108879509
Fe 41.6573909149 32.9592419235 7.2183162506
Fe 43.0211392499 31.5494511919 5.7413300415
Fe 44.4725678211 33.0334982889 7.210821977
Fe 45.9517429294 31.6007613842 5.7525450818
Fe 47.2987458296 33.0549981858 7.1541144908
Fe 48.8018170758 31.6262822534 5.7322074628
Fe 50.1692277527 32.9988754654 7.1863904707
Fe 51.6380597241 31.5589942148 5.7830586469
Fe 53.0669880589 33.0512594934 7.1330401575
Fe 54.5467862515 31.5486540015 5.7353668757
Fe 55.9194138087 33.0400806188 7.2296793228
Fe 0.0382636642 34.3867167558 5.7855413998
Fe 1.440570599 35.8907186847 7.1835468382
Fe 2.8434950474 34.3925535273 5.7343234487
Fe 4.2901806958 35.8486946088 7.1609651764
Fe 5.6934619738 34.4898508832 5.7046524355
Fe 7.1267298541 35.8774406034 7.2043965843
Fe 8.559116853 34.4021177608 5.7626789259
Fe 10.057541034 35.8492871094 7.1983965686
Fe 11.4967871827 34.3831744266 5.7652941639
Fe 12.9352016338 35.8397202588 7.2153921154
Fe 14.3648360372 34.4061990148 5.7692832545
Fe 15.7405545259 35.9044040368 7.1705465691
Fe 17.2483550606 34.3854291571 5.7194485575
Fe 18.6232936455 35.8839610208 7.1818968764
Fe 20.1319511909 34.4310677308 5.7388412966
Fe 21.5095990205 35.819202845 7.1643592508
Fe 23.0166723159 34.4301011277 5.7575954158
Fe 24.3387682608 35.9194028427 7.2036841165
Fe 25.8663571835 34.3949927879 5.7091742619
Fe 27.3176814497 35.8570576515 7.2032523505
Fe 28.6629597467 34.4400010967 5.7235890478
Fe 30.0887646919 35.9104543141 7.1396782099
Fe 31.5548535401 34.4565788337 5.7228406457
Fe 32.9512162692 35.835104066 7.1671089042
Fe 34.419776937 34.4792586037 5.7456027246
Fe 35.9292889806 35.9204881521 7.1269163333
Fe 37.2873090773 34.4787529584 5.7671334065
Fe 38.7902303498 35.9061895472 7.2301098298
Fe 40.1664789614 34.3905260577 5.7796527056
Fe 41.6268920618 35.8629615818 7.1325157543
Fe 43.0172941423 34.4346757725 5.7618930754
Fe 44.4402486266 35.8232651482 7.1828652646
Fe 45.9057501447 34.4801488964 5.6994572712
Fe 47.3882670056 35.9060776722 7.2175627181
Fe 48.7555814523 34.4482632885 5.700056918
Fe 50.2583874298 35.9086946074 7.1174803624
Fe 51.6495494687 34.4245018773 5.7112008948
Fe 53.1064598782 35.8885659205 7.185825632
Fe 54.5590487036 34.4798851975 5.7292922808
Fe 55.9992308897 35.9316280638 7.217349873
Fe 57.3945534223 37.3027945521 5.7042760854
Fe 1.3933341256 38.7114492004 7.1377442308
Fe 2.8569910237 37.2737158366 5.769405981
Fe 4.2591771738 38.7718806472 7.1401723266
Fe 5.7006127888 37.3419376311 5.7525192668
Fe 7.2180143107 38.7389751239 7.1807839487
Fe 8.5813803616 37.2867266521 5.7387170193
Fe 9.9979672456 38.732398715 7.2282790968
Fe 11.510753733 37.3085880596 5.6963463134
Fe 12.9426221544 38.7272755214 7.1243312484
Fe 14.2942357092 37.3165185471 5.6959746127
Fe 15.7784093092 38.771674885 7.1695054712
Fe 17.1695913647 37.3260282427 5.7052599463
Fe 18.6544208563 38.7649704897 7.1800891496
Fe 20.0923619586 37.2745512901 5.7083663497
Fe 21.5593284901 38.7533604436 7.1741014364
Fe 22.9807819382 37.2624324637 5.6922867856
Fe 24.3467065229 38.749235143 7.1350426263
Fe 25.8467734552 37.3345159868 5.7196606141
Fe 27.3046871752 38.7939866017 7.2305146323
Fe 28.6571318661 37.2946002168 5.7165638792
Fe 30.0814578972 38.6897783518 7.155903767
Fe 31.5592149671 37.2992870314 5.7423726738
Fe 33.0149419076 38.7401722622 7.1897281591
Fe 34.4704972677 37.2870634729 5.7119224459
Fe 35.8678589235 38.7536209893 7.1938000867
Fe 37.2867156193 37.2602209631 5.7811368814
Fe 38.7304499031 38.7994558652 7.2114377681
Fe 40.2293434339 37.2929451939 5.7709027376
Fe 41.5803239402 38.7551785647 7.1411218922
Fe 43.0653835448 37.3488530933 5.7935906968
Fe 44.4910334504 38.7281939396 7.1641239301
Fe 45.8624675758 37.3672117873 5.720127208
Fe 47.3301588935 38.6979626077 7.2121047739
Fe 48.7607014757 37.3427601999 5.7283875727
Fe 50.176204538 38.7796851051 7.1755389273
Fe 51.6834880979 37.2613900273 5.7458841796
Fe 53.0811181581 38.8000214795 7.1552315556
Fe 54.5784702618 37.3348280758 5.7681578628
Fe 55.9464055116 38.7048441573 7.1667175377
Fe 57.3844074487 40.1540286391 5.7621036541
Fe 1.4359283249 41.5965361851 7.2297731719
Fe 2.9255341767 40.1450023245 5.7736197124
Fe 4.3270496437 41.5855549944 7.1479480495
Fe 5.7488025942 40.1987158213 5.782719971
Fe 7.1807400168 41.6627429725 7.1636076462
Fe 8.5533013115 40.2236197598 5.6876009461
Fe 10.0406222642 41.6415610519 7.1479975091
Fe 11.5000913977 40.1320880485 5.7415925854
Fe 12.9215763636 41.5958577395 7.2240250363
Fe 14.3185546744 40.2031392931 5.7400569864
Fe 15.8253233072 41.6314764721 7.1991273847
Fe 17.1959965142 40.1431317145 5.761518656
Fe 18.6950627201 41.6126214752 7.1396713059
Fe 20.1236774937 40.1262264687 5.7422920604
Fe 21.5589214991 41.5592837153 7.2151798725
Fe 23.0151679185 40.1353664328 5.7323770624
Fe 24.3775581777 41.5818555186 7.1506077053
Fe 25.7999446561 40.1773149933 5.7376415425
Fe 27.2179998983 41.591181525 7.2231927341
Fe 28.6875565647 40.1387708913 5.7911559877
Fe 30.1195569318 41.6422803974 7.2166319204
Fe 31.5813331684 40.1728280688 5.7049312471
Fe 32.9782712493 41.5859396763 7.2252945367
Fe 34.4920348367 40.2197191656 5.7229409358
Fe 35.8666671343 41.6478116146 7.2274416245
Fe 37.283373519 40.1515002118 5.7088918419
Fe 38.7853920363 41.5881425977 7.1841854127
Fe 40.1780467524 40.1783217475 5.7073941106
Fe 41.6230926179 41.6726317452 7.2226947108
Fe 43.0274872666 40.1528252968 5.6978607933
Fe 44.4632372505 41.6069396506 7.2211012829
Fe 45.8878746617 40.2197130336 5.7543170708
Fe 47.3980572336 41.6322714718 7.1991406406
Fe 48.757651078 40.2221506687 5.7563347663
Fe 50.2482638931 41.6562137532 7.225600364
Fe 51.6813228572 40.1846024932 5.7106766138
Fe 53.0513650431 41.6024862197 7.1487341673
Fe 54.541438749 40.2306752982 5.7744098287
Fe 56.0070926312 41.5748115873 7.1898520156
Fe 57.395408889 43.0400197569 5.6942913419
Fe 1.4107010602 44.452227974 7.183600941
Fe 2.8480151396 43.0263528841 5.716383284
Fe 4.2672118242 44.5390870557 7.1543337731
Fe 5.7009888554 43.0849576191 5.7921564602
Fe 7.1541383993 44.5216483936 7.145270508
Fe 8.6006236795 43.0339362907 5.769681315
Fe 10.0030447634 44.5406928143 7.2137797816
Fe 11.5120483628 43.019852278 5.7245248628
Fe 12.938865398 44.4967601364 7.1313912885
Fe 14.3117457951 43.0811175329 5.7086722229
Fe 15.7306579575 44.4418528972 7.1340670643
Fe 17.2420118037 42.9991658815 5.7491042463
Fe 18.6537792095 44.4528445071 7.1848016848
Fe 20.1071527896 43.1073716143 5.7574470367
Fe 21.5431523326 44.4558220743 7.1355106102
Fe 22.9378657543 43.0245172451 5.6902374231
Fe 24.3413139471 44.5354974497 7.2004407984
Fe 25.8411067722 43.0009614203 5.7372022056
Fe 27.2126594336 44.5070744084 7.1311605413
Fe 28.6788734592 43.0632836936 5.7127829939
Fe 30.1704173509 44.5232830024 7.1464829605
Fe 31.551091402 43.1020525652 5.783874118
Fe 32.9921187462 44.4632374972 7.1421504916
Fe 34.3868121861 43.0753289925 5.7605931284
Fe 35.9044811052 44.4720608035 7.1338481212
Fe 37.3263867815 43.0403010353 5.7647301525
Fe 38.7690315875 44.4490492193 7.174416157
Fe 40.1655066734 43.0124161215 5.685558462
Fe 41.5912271607 44.4388105699 7.1387190569
Fe 43.0116187306 43.106797816 5.7132002066
Fe 44.43500912 44.4425615383 7.1737170373
Fe 45.9121809063 43.0679653919 5.7808033492
Fe 47.3721993503 44.482376492 7.1228936708
Fe 48.8322798783 42.9969578049 5.7944573355
Fe 50.274693275 44.5156527228 7.2261642075
Fe 51.6156803347 43.0242292671 5.7658210618
Fe 53.0443183165 44.4866004886 7.1635546114
Fe 54.5369730484 42.9987772227 5.7324146517
Fe 55.9281344861 44.4361331016 7.2148220301
Fe 57.3585170806 45.9437883024 5.701473709
Fe 1.4058423316 47.3719423906 7.1654482486
Fe 2.8402833685 45.9253603061 5.7823053229
Fe 4.3114224816 47.2984821632 7.2166262831
Fe 5.7056730901 45.9501734397 5.7271438875
Fe 7.1293900416 47.3476835284 7.194579857
Fe 8.6105280059 45.9144069156 5.6887023218
Fe 10.011115061 47.3081716194 7.1293804896
Fe 11.4854564013 45.8899189493 5.7468464255
Fe 12.886100196 47.3194950755 7.1259828439
Fe 14.3843256622 45.9468381804 5.7565075654
Fe 15.7621518245 47.3813446261 7.1622833821
Fe 17.2234148944 45.9069901648 5.7958680917
Fe 18.6979762572 47.3965030419 7.1578106573
Fe 20.0907867209 45.9735416542 5.7420932444
Fe 21.5333744345 47.3992618869 7.2025363767
Fe 22.9934966159 45.9190085114 5.686491857
Fe 24.3765237111 47.3989615344 7.2091401988
Fe 25.8000417627 45.904188357 5.7777648489
Fe 27.2324700773 47.3111948889 7.1343334068
Fe 28.7370795008 45.9337502677 5.6889612666
Fe 30.1537392784 47.3258315695 7.1501224225
Fe 31.5326025356 45.9748711865 5.7252301029
Fe 32.9895537454 47.3190052937 7.2050704255
Fe 34.4066292336 45.8797319129 5.7928670829
Fe 35.8817281166 47.3172958551 7.1842772733
Fe 37.344336678 45.8686296744 5.7568604235
Fe 38.7756847877 47.3115060905 7.229234853
Fe 40.1455501072 45.933060502 5.7288556836
Fe 41.6311958548 47.373340802 7.1803175053
Fe 43.0876843774 45.895203553 5.7563790257
Fe 44.5224695763 47.3798965008 7.2307080458
Fe 45.9273447037 45.8939455373 5.7857111328
Fe 47.3388459085 47.3083766355 7.1794787599
Fe 48.7361384598 45.9011573951 5.7327490086
Fe 50.2474454903 47.3875886232 7.1619979548
Fe 51.6706837596 45.9075213428 5.7683664822
Fe 53.0378993044 47.3606332559 7.1189076964
Fe 54.5143339818 45.894778388 5.7356947136
Fe 56.0026081448 47.3795027947 7.2271390344
Fe 0.0208626981 48.8469896999 5.7751924796
Fe 1.4202309635 50.209234032 7.1991495802
Fe 2.8538747551 48.7522680229 5.7217548978
Fe 4.3204853584 50.2764216848 7.1261192462
Fe 5.7199168343 48.8397195292 5.7674174315
Fe 7.1393595584 50.2045546674 7.1838948663
Fe 8.6421754852 48.8037780744 5.7220333928
Fe 10.0361268806 50.2702624566 7.1758532804
Fe 11.5350363523 48.8159077605 5.7874040685
Fe 12.8925486777 50.2702263827 7.1339010444
Fe 14.3076861761 48.805123255 5.7247406207
Fe 15.7861577074 50.2161277759 7.1462676676
Fe 17.2710473738 48.831443098 5.7106078997
Fe 18.6593352044 50.2309503298 7.1695930379
Fe 20.0763880919 48.7772332717 5.6928801098
Fe 21.4988705909 50.2221145136 7.1974188972
Fe 22.9817514763 48.7660613962 5.7627734259
Fe 24.4181236492 50.223042998 7.2207750462
Fe 25.8289832066 48.7965224985 5.7211840736
Fe 27.3072901888 50.2027245655 7.1648075709
Fe 28.69678877 48.8060818512 5.7652288577
Fe 30.1633817632 50.1824165366 7.2236395143
Fe 31.522855224 48.8442959537 5.7353963059
Fe 32.9821513683 50.1833504713 7.1484216506
Fe 34.3913468444 48.7474990744 5.7149187629
Fe 35.8654522013 50.2480616635 7.1201066109
Fe 37.319808164 48.7903365519 5.7380755734
Fe 38.7121305723 50.1995590963 7.1739713408
Fe 40.1575888221 48.7423864504 5.7075106936
Fe 41.6483788147 50.1975557507 7.1378357674
Fe 43.0936804678 48.8261543338 5.7618257417
Fe 44.5165701407 50.2726778772 7.132418173
Fe 45.8648938238 48.7374505132 5.7363140152
Fe 47.3785583439 50.2328171543 7.1935087283
Fe 48.7839618878 48.7348903921 5.7176071128
Fe 50.192667112 50.2572626787 7.1695712315
Fe 51.7050069311 48.7829695564 5.7516345476
Fe 53.1288938513 50.1714915714 7.1815713993
Fe 54.5877966267 48.8262068607 5.7274445225
Fe 55.9534025932 50.230673105 7.1946676913
Fe 0.0164076101 51.6187304379 5.7810156317
Fe 1.393106219 53.0880836526 7.172136773
Fe 2.8569739278 51.628009357 5.7682548682
Fe 4.2610724699 53.121520068 7.2252884638
Fe 5.6977317244 51.6047797563 5.7536140882
Fe 7.1872211726 53.1185794459 7.1212462837
Fe 8.6639035921 51.6692135766 5.724116472
Fe 10.048131817 53.1489305186 7.1867583842
Fe 11.5137177473 51.6285636635 5.7211128345
Fe 12.9607535133 53.1000726058 7.1422713678
Fe 14.3715840994 51.6491573505 5.7838728452
Fe 15.7778414483 53.109577778 7.1717558942
Fe 17.1695595703 51.7137497255 5.7922125686
Fe 18.6243448239 53.1008714601 7.1883967651
Fe 20.1270971894 51.6986606092 5.7022328661
Fe 21.4845857948 53.070670099 7.1459782363
Fe 22.9028551105 51.6777916347 5.705571118
Fe 24.3432830352 53.0507666939 7.197441374
Fe 25.8836984899 51.6449441882 5.7899095728
Fe 27.2093034738 53.0694692426 7.1613430487
Fe 28.666737024 51.6628826369 5.6938554356
Fe 30.1002147954 53.1200682811 7.1540946093
Fe 31.6228576079 51.6410800603 5.7755875922
Fe 33.0540071287 53.1459775516 7.163714868
Fe 34.415236578 51.6774591794 5.7603968015
Fe 35.9090099492 53.1403389519 7.2294865508
Fe 37.3169675789 51.6383448688 5.7371368147
Fe 38.7154886204 53.0404152612 7.1855387562
Fe 40.1312006726 51.6105286605 5.7399901118
Fe 41.590603278 53.0805747502 7.178396683
Fe 43.0294339886 51.639237086 5.7793347541
Fe 44.4381755272 53.1325710071 7.2041255861
Fe 45.8908604109 51.6183893072 5.7045539938
Fe 47.2975837227 53.1293689299 7.1212420987
Fe 48.8256243141 51.6572081119 5.7131826062
Fe 50.2666980911 53.0836633543 7.1996286093
Fe 51.7140579517 51.6394274611 5.6936107873
Fe 53.1342414031 53.0389804135 7.1602721222
Fe 54.5651148192 51.6659041172 5.707811463
Fe 56.0118944995 53.0823194328 7.1965659191
Fe 0.0202522834 54.5483171272 5.7770519044
Fe 1.4701905441 55.9079474355 7.1916778951
Fe 2.9044841507 54.5858379739 5.7378383987
Fe 4.2507651559 55.9924725528 7.2147251303
Fe 5.7491950788 54.550689897 5.7655293028
Fe 7.1338174476 55.9918006994 7.1178016701
Fe 8.6185808568 54.5615584861 5.7252369655
Fe 10.0801880256 55.9535848969 7.1182560849
Fe 11.4694086355 54.5814615725 5.7036343233
Fe 12.9720731843 55.9324005619 7.1492510549
Fe 14.2946540959 54.5502838805 5.7683141572
Fe 15.7452971653 55.9831773913 7.1357162352
Fe 17.188704118 54.5823362358 5.7517397617
Fe 18.7029025788 55.9202190845 7.1960286862
Fe 20.1040988244 54.5210804623 5.7893104893
Fe 21.4975326078 55.9324230062 7.1413016047
Fe 22.9150301219 54.5381196389 5.7381555257
Fe 24.396762111 55.9258033047 7.1874726541
Fe 25.7822283281 54.5220365088 5.6853135899
Fe 27.2773996622 55.9959804705 7.2215627271
Fe 28.7065807092 54.4877412486 5.7692542063
Fe 30.113541909 55.9672863169 7.176950292
Fe 31.5451727229 54.5077981292 5.6840107066
Fe 32.9563327375 55.9757700546 7.1887763386
Fe 34.4248263533 54.4767052856 5.6972263268
Fe 35.8691269805 55.9276677455 7.2083725529
Fe 37.3218744882 54.5452623209 5.7465377552
Fe 38.7333665933 55.9209072466 7.1639225193
Fe 40.1263745496 54.5247819047 5.7020125943
Fe 41.5937399311 55.9840887907 7.1989560349
Fe 43.0659648363 54.4986614524 5.7230046068
Fe 44.5250417075 55.981394695 7.1182679167
Fe 45.9147643253 54.4957938848 5.7372345419
Fe 47.3133743013 55.919771544 7.1519893591
Fe 48.7832404295 54.4747385795 5.7749662534
Fe 50.2365827119 55.9559514268 7.1733044383
Fe 51.6469250418 54.5395860159 5.7707136591
Fe 53.1398424299 56.0118156916 7.1844993853
Fe 54.488814206 54.5124805152 5.6877495115
Fe 56.0060074182 55.9929947891 7.1695960498
Fe 57.3557760476 57.3884096312 8.5706161391
Fe 1.417724356 1.4306241954 10.0545557174
Fe 2.8528407534 0.0485362058 8.6124811051
Fe 4.3154551898 1.4784428346 10.0717276655
Fe 5.7957634576 0.0536053449 8.6073073033
Fe 7.1813645681 1.4167748625 10.0399468171
Fe 8.6479370114 57.3484803684 8.5846974653
Fe 10.0196361153 1.426893458 10.0862861037
Fe 11.4676850646 0.0098404407 8.5708022752
Fe 12.9207607395 1.4032317378 10.0190668514
Fe 14.3044629358 57.3617757931 8.6257302317
Fe 15.820406462 1.3836354543 10.0595269554
Fe 17.2448212835 0.0270325452 8.6070296411
Fe 18.6176239069 1.3942893091 10.0306370823
Fe 20.112855229 0.0150304313 8.6578958745
Fe 21.4978654796 1.4383131335 10.0753058005
Fe 22.9717720529 57.3631145997 8.6257292938
Fe 24.4339792162 1.4695195301 10.0247228692
Fe 25.8792094302 57.3742629956 8.5981092263
Fe 27.3079517001 1.4315416113 10.0139610133
Fe 28.7119472368 57.3911232503 8.5568107685
Fe 30.0898095289 1.3958596719 10.0162271676
Fe 31.5199217155 0.0363441912 8.6658007086
Fe 32.997590435 1.4091024896 10.0231609096
Fe 34.4480407143 57.3787320723 8.6429061559
Fe 35.8556730135 1.4630871468 10.0130877997
Fe 37.3565720366 57.3800822437 8.638376589
Fe 38.7130524862 1.4735890549 10.0238366544
Fe 40.1243383383 0.0110052532 8.5822560412
Fe 41.6265737718 1.4062928644 10.0654532305
Fe 43.0484955762 0.0454989564 8.5595986213
Fe 44.4488470335 1.4027963247 10.0285489246
Fe 45.9385080006 57.356676693 8.6409663438
Fe 47.3439997105 1.4744861591 10.0255875656
Fe 48.8292939315 0.0101661327 8.6165050467
Fe 50.2243415469 1.3985824329 10.0697461882
Fe 51.6186701017 57.3725807998 8.648323623
Fe 53.0907030718 1.4297229815 10.0535960449
Fe 54.5342496406 57.3592069095 8.6404329692
Fe 55.9090594294 1.4551693677 10.033166235
Fe 0.0236844997 2.8727851119 8.6056542437
Fe 1.4205792899 4.2919833925 10.0711009628
Fe 2.8722372628 2.8273269203 8.5923837284
Fe 4.2905636493 4.2673397119 10.0581972048
Fe 5.7882772487 2.8836446576 8.5693968828
Fe 7.1337217299 4.2776351218 10.0819533252
Fe 8.6512224052 2.870442571 8.5930579551
Fe 10.0835098818 4.2695618889 10.0959978164
Fe 11.5051908892 2.8502291364 8.5619271633
Fe 12.9085097197 4.3400749457 9.9942530677
Fe 14.372236088 2.8869724297 8.6542865186
Fe 15.8216544023 4.3218733598 10.0623926108
Fe 17.1711548396 2.8834521159 8.5634736435
Fe 18.6349540199 4.293560014 10.0195126876
Fe 20.1464211737 2.863275396 8.6166640865
Fe 21.566654651 4.3353494269 10.0649226314
Fe 22.9357166159 2.8843967179 8.6513688037
Fe 24.4209199214 4.2534287363 10.0623835736
Fe 25.8342425598 2.8582058485 8.606518847
Fe 27.2138126805 4.2719908738 10.082830027
Fe 28.6651651378 2.8852307436 8.5609017015
Fe 30.1624297027 4.274895777 10.0002129141
Fe 31.5719212999 2.8782571758 8.614204579
Fe 32.9580798381 4.2958644967 10.071396204
Fe 34.4352934417 2.82621548 8.6527571479
Fe 35.8998175717 4.2858498729 10.0783470642
Fe 37.2628093736 2.86056236 8.5733553651
Fe 38.7738069789 4.3227808027 9.9971136271
Fe 40.1685269109 2.9240915349 8.5838519698
Fe 41.618049996 4.305483442 10.0823476946
Fe 43.0549871989 2.8787768903 8.6217740317
Fe 44.5417667881 4.299206968 10.0553989391
Fe 45.9470771804 2.8933161222 8.609959059
Fe 47.3428806916 4.2906094085 10.0040596328
Fe 48.790308657 2.8786292684 8.6375111396
Fe 50.205949924 4.2818378765 10.0181577268
Fe 51.6506893758 2.8187258517 8.587572179
Fe 53.0895485872 4.2858744783 10.0477694981
Fe 54.502134102 2.8639184886 8.657549548
Fe 55.985728734 4.3529233136 10.0975153262
Fe 57.3439512872 5.6845872758 8.589879093
Fe 1.4846241564 7.1986634061 10.0281595555
Fe 2.8336738165 5.7001531213 8.637521578
Fe 4.2614069549 7.13176637 9.9924262738
Fe 5.7095859237 5.7149030728 8.6211530219
Fe 7.168026097 7.1327933702 10.0153144293
Fe 8.6150858215 5.7069872795 8.5888114375
Fe 10.0406452918 7.1942491977 9.9914853931
Fe 11.4845734475 5.787093396 8.647741849
Fe 12.9402996423 7.2256914071 10.0263155151
Fe 14.3213123478 5.7757588311 8.6634055795
Fe 15.7376955074 7.2180735231 10.0051752037
Fe 17.2142464331 5.7135420297 8.5974444317
Fe 18.6084845831 7.2252697111 10.0928592067
Fe 20.1429962292 5.7236909142 8.5964925574
Fe 21.4826264326 7.1800245929 10.0829749871
Fe 22.9073048792 5.6964903399 8.6167476175
Fe 24.41138729 7.1977502016 10.0130262066
Fe 25.8368907666 5.7312968796 8.6490228776
Fe 27.3078498559 7.1259305492 10.0267181324
Fe 28.699427005 5.742147226 8.6498260374
Fe 30.1471718345 7.195114896 10.0850080016
Fe 31.5212160159 5.7664009277 8.6334708145
Fe 32.9740881983 7.1600308157 10.0711970214
Fe 34.4600397424 5.7356097693 8.6173860029
Fe 35.8689095674 7.1304549466 10.0309975597
Fe 37.348903994 5.7914701566 8.6531717476
Fe 38.7136984458 7.2282721087 10.0247969534
Fe 40.193894449 5.7275965899 8.6401915478
Fe 41.6201049928 7.1670868388 10.0098441875
Fe 43.0692536384 5.7281625215 8.6371394728
Fe 44.5287048951 7.1407368275 10.0965664478
Fe 45.8989191679 5.6866299045 8.5921541187
Fe 47.334932428 7.2282622758 10.0553744853
Fe 48.8078088384 5.7598985058 8.5853937261
Fe 50.2352744562 7.1522800776 10.0608618837
Fe 51.6885870104 5.754935904 8.6659848993
Fe 53.1245287419 7.1537887229 10.0466109334
Fe 54.5503738858 5.7968750798 8.6562114468
Fe 56.006341734 7.2026976102 10.0116831243
Fe 0.0027486718 8.5989034437 8.5613834114
Fe 1.4440257976 10.0820073245 10.1007473409
Fe 2.8851312026 8.6419691236 8.5658175324
Fe 4.2895946221 9.9932592733 10.0451903575
Fe 5.7323551552 8.56905699 8.6009549782
Fe 7.1329003216 10.0105180425 10.0549188961
Fe 8.5940120914 8.6007174005 8.5743218851
Fe 9.9934696189 10.077269821 10.0750323657
Fe 11.4937851434 8.6078692792 8.6595115185
Fe 12.9467594836 10.0464838256 10.0230106965
Fe 14.3820427818 8.5943012228 8.6613447875
Fe 15.7278067676 10.0199010426 10.0304111436
Fe 17.1639997591 8.5710124468 8.5760736063
Fe 18.6946195894 10.0362346733 10.0361040759
Fe 20.0369641417 8.6301913329 8.6533855843
Fe 21.4719047333 10.0679296965 10.0511614143
Fe 22.9626958717 8.6637416434 8.6533912493
Fe 24.3474799699 10.1017228013 10.0801950262
Fe 25.8085620335 8.560763091 8.6430766211
Fe 27.2117156583 10.0960275526 9.9987892312
Fe 28.6424893896 8.6253173133 8.6311229806
Fe 30.0929765726 10.0974212848 10.0531680921
Fe 31.5455847432 8.5693028237 8.5727906068
Fe 32.9564771394 10.0257245192 10.100218075
Fe 34.464970073 8.5729325827 8.5897959268
Fe 35.9214617521 10.0576471953 10.0229468804
Fe 37.3310414079 8.5603247992 8.6430790498
Fe 38.7961929868 10.0106642939 10.0043580497
Fe 40.16274901 8.6236130823 8.6098692
Fe 41.6350714081 10.059782419 9.9968888905
Fe 43.0705471137 8.5957778754 8.6497890465
Fe 44.5424538505 10.1023578576 10.045468114
Fe 45.9767437282 8.5671616238 8.607880743
Fe 47.3859736778 10.0400588848 10.0757305238
Fe 48.8161239215 8.5675212744 8.6546900682
Fe 50.2450660018 10.0454027924 10.043427476
Fe 51.6405865026 8.6507469374 8.6675593693
Fe 53.1419615004 10.0345741328 10.0694695497
Fe 54.4774554383 8.6486503068 8.5743493304
Fe 55.9360643566 10.0423643117 10.06792237
Fe 57.3702089946 11.5266484406 8.5699564455
Fe 1.4134618611 12.931652076 10.1003766866
Fe 2.8334434043 11.4845429943 8.6036993558
Fe 4.3375161236 12.8770644119 10.0801752519
Fe 5.7377530053 11.450104871 8.6663939686
Fe 7.196887711 12.9680007056 10.0638115947
Fe 8.5989623885 11.4891920473 8.6273876525
Fe 10.0676808444 12.9700096796 10.0978334106
Fe 11.4680167764 11.5311806458 8.5582921185
Fe 12.8797297941 12.8987695126 10.0656954828
Fe 14.3588046187 11.5346880205 8.5750302145
Fe 15.8282457098 12.9444123397 9.9878438894
Fe 17.2518993518 11.4491260182 8.6001355364
Fe 18.6852026349 12.9354291892 10.0929567231
Fe 20.0565251672 11.4862443162 8.5727633422
Fe 21.5369105498 12.8836145225 10.021645329
Fe 22.9847373158 11.4993241606 8.6654675412
Fe 24.3518057664 12.9031031993 10.0302633845
Fe 25.8148980796 11.5171593444 8.6209978771
Fe 27.2206978563 12.8741504492 10.0256958325
Fe 28.6819783699 11.5345018125 8.5859301697
Fe 30.1341111338 12.9125857151 10.0750228296
Fe 31.6149587519 11.4506987535 8.6434337268
Fe 33.0586460003 12.9667834659 10.0151354563
Fe 34.427911496 11.535065264 8.6427273987
Fe 35.8607164125 12.9678788914 10.0046259895
Fe 37.3307707884 11.5162977985 8.6469590972
Fe 38.7915779547 12.937021195 10.0294370418
Fe 40.1798572452 11.4747326649 8.6349137315
Fe 41.6235600916 12.872901258 9.9880150028
Fe 43.0293115231 11.4695860504 8.5725311648
Fe 44.5030484859 12.9611882973 10.0948991903
Fe 45.9148860701 11.4520107166 8.6098021147
Fe 47.2996936895 12.9315152274 10.0257191842
Fe 48.7839885766 11.5075242895 8.5626127763
Fe 50.1946070219 12.9454588544 10.0411106658
Fe 51.6176647963 11.4727159643 8.6054993125
Fe 53.0946872525 12.8897772252 10.0600185509
Fe 54.5437419029 11.4706151421 8.5549497795
Fe 55.992184593 12.8983844524 9.9978969795
Fe 57.368555742 14.4070247632 8.6069614666
Fe 1.3974652649 15.8424526946 10.0325428918
Fe 2.8952140375 14.3337009921 8.5563081192
Fe 4.3485126249 15.7574945554 10.0214765423
Fe 5.7778612937 14.3943966241 8.6323893591
Fe 7.1476025309 15.8203383744 10.0868801724
Fe 8.5592204072 14.3267843132 8.5975812482
Fe 10.0709430789 15.7662006655 10.100723071
Fe 11.4876034927 14.3637072411 8.6135148318
Fe 12.8583020069 15.7817674063 10.0362415157
Fe 14.3120338759 14.3977089449 8.6173631982
Fe 15.7414433306 15.8401629215 10.0947409718
Fe 17.2419008372 14.3911402427 8.5831370242
Fe 18.6269472748 15.8211550952 9.9944586938
Fe 20.1327881502 14.4061253532 8.5964673725
Fe 21.4859085256 15.8122671251 10.0679724483
Fe 22.9457592372 14.2969235377 8.6385108522
Fe 24.4195245017 15.8340803744 10.0661892485
Fe 25.792547513 14.3734157002 8.5640166276
Fe 27.235763912 15.807980816 10.0034820008
Fe 28.6657959577 14.3169560842 8.5595858711
Fe 30.1193109384 15.7453722831 10.0590616275
Fe 31.5631517064 14.3668121282 8.5938237921
Fe 32.9941489816 15.7819795783 10.0059125652
Fe 34.4802245969 14.3950617877 8.581395251
Fe 35.8660803234 15.727946628 10.0281586257
Fe 37.3316654288 14.3491028017 8.6573449851
Fe 38.710022543 15.7994778082 10.0836671619
Fe 40.1970857525 14.296400442 8.6664444621
Fe 41.6331852589 15.7893676544 10.086671126
Fe 43.0801927032 14.37873931 8.6175033042
Fe 44.507386303 15.7305915835 10.0124134598
Fe 45.8800467376 14.3256279143 8.6326053415
Fe 47.3695895988 15.7455007125 10.0513106612
Fe 48.7999884544 14.3474620028 8.5637509682
Fe 50.2589318147 15.78552998 10.0061097157
Fe 51.6188007007 14.3072890202 8.5801784577
Fe 53.1321128102 15.7531056605 10.0177561135
Fe 54.4776483781 14.3286464597 8.5827050526
Fe 55.9756619295 15.8421425312 10.0797197289
Fe 57.3765584317 17.2657567354 8.6190823589
Fe 1.4562068453 18.6744446899 10.0443292335
Fe 2.90186339 17.2069185796 8.6620491749
Fe 4.3192145397 18.689903538 10.0750942341
Fe 5.6955917944 17.2475169195 8.6538861878
Fe 7.163038188 18.6508316739 10.0373641577
Fe 8.6354601993 17.2554373604 8.6204494944
Fe 10.0902603722 18.6618237487 10.0791721614
Fe 11.4473893535 17.2433384645 8.5775478008
Fe 12.8893548398 18.6812616642 10.0697132725
Fe 14.3294344444 17.2638991772 8.6485450031
Fe 15.7991484574 18.6117207037 10.0413535154
Fe 17.246113738 17.1752491711 8.6070997976
Fe 18.6455769282 18.6160628819 10.0309415359
Fe 20.069249765 17.2027726525 8.6627110689
Fe 21.5601280054 18.6219816285 10.0444776288
Fe 22.9896395553 17.2658756978 8.65089001
Fe 24.3897685471 18.6450167771 10.0303170217
Fe 25.809842016 17.2331574258 8.5543236848
Fe 27.2345861896 18.6241999325 10.0265815176
Fe 28.6972988492 17.1863578109 8.6527809391
Fe 30.089195838 18.6817050895 9.9914534783
Fe 31.5547602946 17.1985766255 8.6122401701
Fe 33.0215333954 18.6635226633 10.0519161991
Fe 34.4318208336 17.1656705832 8.5755876979
Fe 35.8208143371 18.6722523767 10.1023804221
Fe 37.2870327656 17.2347635502 8.6046050794
Fe 38.7634554465 18.6710229481 10.0159312543
Fe 40.158940502 17.2151493596 8.6582056706
Fe 41.6239957915 18.6612992028 10.0189932989
Fe 43.0974940055 17.2531582119 8.5554695512
Fe 44.5385969156 18.6989030407 10.0909463701
Fe 45.8799343495 17.2461947699 8.6038987031
Fe 47.3090898418 18.6108807121 10.0938026337
Fe 48.7544057605 17.251461782 8.6063073141
Fe 50.1923432342 18.6042075165 10.0351625295
Fe 51.7162319594 17.1784277335 8.567131503
Fe 53.1352039919 18.6298683493 10.0560496635
Fe 54.5503579002 17.1843785345 8.6302697089
Fe 55.9303337991 18.7122231685 10.0655994243
Fe 57.3750362738 20.0464856234 8.5733264314
Fe 1.400790382 21.4779859587 10.0305192343
Fe 2.9232098736 20.0896575375 8.6370496012
Fe 4.3030992301 21.5431926554 9.9876665927
Fe 5.7226942419 20.0405223941 8.6315793878
Fe 7.1455161113 21.530360027 10.0933808075
Fe 8.5736197729 20.0572050272 8.5641359737
Fe 10.022181989 21.56005959 10.0656296986
Fe 11.453978947 20.1363939998 8.5998949446
Fe 12.90870538 21.4910854926 9.9916204645
Fe 14.3233757644 20.1336439831 8.6231574858
Fe 15.756118151 21.4951822363 10.0043145777
Fe 17.2495261662 20.110590613 8.6175668248
Fe 18.6478603345 21.5466173089 10.0497553406
Fe 20.1267362706 20.0814032627 8.5551625746
Fe 21.5809856992 21.4883762413 10.0461087167
Fe 22.9203168337 20.044786225 8.6313572181
Fe 24.4166107059 21.5627230729 10.0217224196
Fe 25.7746519614 20.1376143339 8.6388782969
Fe 27.2555435732 21.4923635152 9.9959694817
Fe 28.7089702528 20.0541241717 8.6385390111
Fe 30.1017413456 21.5606481164 10.0993272754
Fe 31.5603468839 20.0682471882 8.6240375682
Fe 33.0054295225 21.5359483716 10.0798550115
Fe 34.4956105634 20.0811387244 8.5583855865
Fe 35.8537459235 21.5138409752 10.0633636639
Fe 37.3528775489 20.1365413824 8.6272781083
Fe 38.7727610673 21.4805643159 9.9896589913
Fe 40.2035300266 20.0749368287 8.6659846338
Fe 41.6213338545 21.5128721765 10.0657898893
Fe 42.9993959484 20.1082886491 8.6089282639
Fe 44.5273835215 21.4722799508 10.1018330561
Fe 45.9058545792 20.1158488534 8.6212105097
Fe 47.4109371454 21.5388029062 10.0447035057
Fe 48.7350482104 20.0709864904 8.6568865416
Fe 50.169755026 21.5429386663 10.0723718827
Fe 51.6620800731 20.1386134518 8.5617592499
Fe 53.0382599715 21.5579719566 10.0227651983
Fe 54.5552602278 20.0794063107 8.5987832084
Fe 55.9667277153 21.5763585378 10.020420237
Fe 57.3489359199 22.9918025984 8.6337376703
Fe 1.3935003339 24.366869436 9.9890955431
Fe 2.8162124606 23.0026513802 8.582071396
Fe 4.2638407258 24.4294274531 10.0142194387
Fe 5.761354831 22.9954090884 8.6223006372
Fe 7.1658575253 24.4034732009 10.0062524664
Fe 8.5679509383 22.9909255957 8.5551243358
Fe 10.0472993437 24.441656209 10.0411056715
Fe 11.495178133 22.9248890968 8.6374571306
Fe 12.9556476136 24.3575381761 9.9898657443
Fe 14.4045625622 22.9357729827 8.6313395236
Fe 15.7310694402 24.3459100771 10.0808692561
Fe 17.2343984024 22.9570006792 8.6513883805
Fe 18.6749867411 24.433407651 9.9942503454
Fe 20.0460777277 23.0047904298 8.6394535863
Fe 21.4852535789 24.366941818 10.0142350055
Fe 22.9653531487 22.9280487501 8.6529647175
Fe 24.391334899 24.3532275632 10.0442478078
Fe 25.8007661789 22.9578309503 8.5548354112
Fe 27.2746396811 24.3441636415 9.9919751077
Fe 28.6610932655 22.9707115093 8.5949153983
Fe 30.1789349918 24.3794312888 10.0002927795
Fe 31.560391106 22.9319612669 8.5846367976
Fe 33.0257651976 24.4452387678 9.9928441692
Fe 34.4290618035 23.0140055822 8.6650564334
Fe 35.9308798315 24.3915658224 10.0477171079
Fe 37.2901036605 22.9346963824 8.562227418
Fe 38.7878911529 24.4459922873 10.0785379897
Fe 40.1917085941 22.9917642558 8.6650446958
Fe 41.5912600616 24.4145424615 10.1025514008
Fe 43.0216232451 22.9055975986 8.6383584244
Fe 44.4669117012 24.435473572 10.0884718794
Fe 45.9770236736 22.9986084996 8.5650568845
Fe 47.38817614 24.3412042 10.0478452728
Fe 48.7575116965 22.9914909125 8.6163671006
Fe 50.2048357384 24.3637931847 10.0073524038
Fe 51.7166995028 22.9218042124 8.6253671942
Fe 53.077473824 24.352126428 10.0435470791
Fe 54.5503173171 23.0001548483 8.5780380539
Fe 55.9934248455 24.4257957661 10.0021263957
Fe 57.3728862618 25.8424601017 8.6547127384
Fe 1.4370246221 27.2723927799 10.0549500604
Fe 2.9123094023 25.8726588643 8.5716926559
Fe 4.3074224883 27.3054380406 10.0043782445
Fe 5.7735510921 25.8258412725 8.6179364451
Fe 7.2306994609 27.2527144194 10.0489934094
Fe 8.6251846271 25.8334340899 8.5774534997
Fe 10.0627813287 27.2249166313 10.0841989583
Fe 11.5366024742 25.7874810898 8.5636428477
Fe 12.9574053732 27.2836696342 10.0639384047
Fe 14.4025718781 25.794719131 8.5880711155
Fe 15.7335245066 27.2127343292 10.0270798323
Fe 17.2579216188 25.7879411688 8.5596779543
Fe 18.6723165611 27.2419719186 10.0038641416
Fe 20.0979918562 25.8274662051 8.6106239876
Fe 21.4776560465 27.274809685 9.9970466587
Fe 22.9199004042 25.8740134609 8.6139568559
Fe 24.4305057441 27.2379824978 10.0460536575
Fe 25.7869234805 25.7739746958 8.5930617474
Fe 27.284477333 27.2613737591 10.0262286076
Fe 28.6950683178 25.7872601845 8.6263696693
Fe 30.1497190514 27.3121195217 10.0269533474
Fe 31.6089790137 25.8821971523 8.6124430095
Fe 33.0072909547 27.3014310529 10.0962560771
Fe 34.4158880651 25.8639373717 8.664857754
Fe 35.8627418246 27.2664142205 10.0432256367
Fe 37.2534420944 25.8768708176 8.5768795087
Fe 38.7478262065 27.307120343 10.0912063634
Fe 40.1417597604 25.8258677431 8.5630829573
Fe 41.6262949401 27.2389114554 10.0101337103
Fe 43.0556840717 25.8431324407 8.6110020966
Fe 44.4338061536 27.2873389188 10.0147564577
Fe 45.8641966124 25.7767401831 8.6151240073
Fe 47.39069667 27.2565402216 9.9874247847
Fe 48.7778566219 25.8202109127 8.5745306756
Fe 50.1895467231 27.3199017384 10.0098287864
Fe 51.6258077645 25.854926274 8.6274244077
Fe 53.0613541951 27.2635439401 10.0798625894
Fe 54.4793172311 25.8588223903 8.6558538344
Fe 56.0090072646 27.2485159075 10.0853877929
Fe 0.0085847303 28.7042474588 8.6145769767
Fe 1.4300587583 30.1118928539 10.0988880269
Fe 2.8610439426 28.6480798474 8.6453333798
Fe 4.2612884673 30.1136865321 10.004492888
Fe 5.7729706169 28.7519024428 8.6364731916
Fe 7.195920913 30.181094051 9.9978674656
Fe 8.5938382148 28.6884061873 8.6037411699
Fe 10.0483371277 30.0777112949 10.0706218155
Fe 11.505816461 28.6477717987 8.628773969
Fe 12.9512700836 30.1893175975 10.0739948684
Fe 14.3420610004 28.7522130803 8.5921944318
Fe 15.8022453212 30.13168345 10.0416143771
Fe 17.2282934794 28.6650215433 8.6216608372
Fe 18.6300105998 30.1426754965 9.9975944163
Fe 20.1333540079 28.6900865048 8.6489459274
Fe 21.5633717235 30.1853912195 10.093564194
Fe 22.9118326685 28.6637456139 8.555185966
Fe 24.3540286609 30.1218746399 10.0832496276
Fe 25.7780987186 28.7188757881 8.5870858979
Fe 27.3097343536 30.1164640874 10.0265318408
Fe 28.7406992194 28.6700275751 8.6170375741
Fe 30.1587815004 30.1887752461 10.0329932253
Fe 31.6085979025 28.6570955085 8.5730837586
Fe 33.0430422153 30.0894305086 10.0021496319
Fe 34.4183176621 28.7113728794 8.5719954254
Fe 35.8754100692 30.134966273 10.0261429814
Fe 37.286058983 28.6611866044 8.6264078428
Fe 38.721602065 30.1083776685 10.0902717099
Fe 40.1270199946 28.7484817501 8.6038748686
Fe 41.6147408303 30.1114723213 10.0638258742
Fe 43.0269990286 28.6503032075 8.6127840116
Fe 44.4568919849 30.1364104676 10.0714752221
Fe 45.8644493111 28.724873059 8.5964621598
Fe 47.3092179586 30.0879459552 10.0599007861
Fe 48.7544714386 28.6505137737 8.6485542259
Fe 50.2700263532 30.1276330515 9.9950547264
Fe 51.624230705 28.7169810484 8.6641192552
Fe 53.0977744184 30.1298490827 10.0334586157
Fe 54.5272801919 28.6567581452 8.5912880198
Fe 55.9558755756 30.1141102134 10.0228224973
Fe 57.3977317765 31.5204656386 8.6596830544
Fe 1.3939543592 33.0077177602 10.0543514612
Fe 2.9223847676 31.5924437978 8.5770855364
Fe 4.2657062219 33.0203224024 10.0477472239
Fe 5.7500056955 31.6212319092 8.6542926321
Fe 7.1225589441 33.0622505204 10.0666402389
Fe 8.6114751842 31.5806267233 8.6073618011
Fe 10.0542762787 33.0628397373 9.9875696401
Fe 11.4781807819 31.5859769721 8.605284467
Fe 12.9088702773 33.0215602526 10.0943410238
Fe 14.3522234096 31.6216999448 8.5821277772
Fe 15.7783890907 32.9952689317 10.1007949998
Fe 17.237831219 31.5762562706 8.6335700488
Fe 18.6383716238 32.9728633671 10.0428929029
Fe 20.060776511 31.5866869563 8.576762999
Fe 21.544064292 33.0281773741 10.0458690315
Fe 22.9758767386 31.557558138 8.5734827673
Fe 24.4023966273 32.981400785 10.0694610302
Fe 25.8203855952 31.5796858018 8.6200407313
Fe 27.2156297283 33.0176435154 10.0665842468
Fe 28.6428874122 31.535447967 8.624735937
Fe 30.0821328348 32.9500460393 10.072889371
Fe 31.5244230939 31.5148653468 8.5775211336
Fe 33.005492751 32.9999934524 9.9935052094
Fe 34.4025608965 31.562099231 8.620259162
Fe 35.8287256092 33.0128718458 10.0614895414
Fe 37.3607641209 31.5870267468 8.5811756568
Fe 38.7881577007 32.9678858515 9.9902846634
Fe 40.1514588863 31.6080194395 8.6263783487
Fe 41.619413992 32.9566045248 10.0120251177
Fe 43.0085641647 31.6044353303 8.6444644638
Fe 44.5289201006 33.0075816376 10.0268063349
Fe 45.8830558964 31.563980593 8.6670056314
Fe 47.3395524944 32.9552068858 10.0853687336
Fe 48.7632452367 31.5964301939 8.615727335
Fe 50.2743041038 32.9730734766 10.0359520389
Fe 51.6696730906 31.5131975884 8.5595291439
Fe 53.0872511259 33.0236407798 9.9939954664
Fe 54.5191125874 31.5779569579 8.6230720542
Fe 55.9592297512 32.9934996896 10.0036228632
Fe 57.3534494375 34.4095487211 8.5589477369
Fe 1.4079755503 35.8704453669 10.0056716046
Fe 2.9087426311 34.4506005241 8.6013053084
Fe 4.3047136841 35.8889036162 10.0244031417
Fe 5.7223451992 34.3984262065 8.6050329437
Fe 7.1980567199 35.8539486805 10.0150741637
Fe 8.6188283946 34.4659868859 8.6407283346
Fe 10.0131582099 35.9059468098 10.003961374
Fe 11.5132084364 34.436700027 8.5947861656
Fe 12.8800880856 35.8195136489 10.1019391628
Fe 14.3616250191 34.4709898799 8.5627372067
Fe 15.8218928716 35.8393357025 10.0344064534
Fe 17.167310453 34.4745773973 8.6204724145
Fe 18.63489752 35.8790279126 10.0518952323
Fe 20.1169893547 34.4260044691 8.5732614035
Fe 21.5356804624 35.9225868051 10.0543564991
Fe 22.9661052695 34.450145332 8.654992961
Fe 24.4471255996 35.8576959453 10.0458729428
Fe 25.8190345094 34.423116496 8.5984591165
Fe 27.2912139875 35.8798901734 10.0069822661
Fe 28.6782375393 34.4494627421 8.6068223793
Fe 30.1399661834 35.8623673549 10.0384461339
Fe 31.5384582746 34.4208190544 8.6178223025
Fe 33.0315311054 35.8618442602 10.0898159221
Fe 34.4762657376 34.4444116816 8.5626159985
Fe 35.8713622635 35.9107225007 10.0644799048
Fe 37.290812411 34.4872199082 8.5702740144
Fe 38.7698384508 35.8467830708 10.0722153533
Fe 40.1581806692 34.394089857 8.5555249993
Fe 41.6309101634 35.8765337147 10.0893853459
Fe 43.0908504931 34.4886655144 8.5957073386
Fe 44.4909172079 35.9137433133 10.0343710704
Fe 45.9474016114 34.4511298589 8.589134547
Fe 47.32196416 35.833032133 10.0998041266
Fe 48.8147394715 34.4960727048 8.6213362779
Fe 50.2596774276 35.923081289 10.0647755954
Fe 51.7031854457 34.4117335992 8.6534278436
Fe 53.0597012687 35.8342929615 9.9992621093
Fe 54.5727444997 34.4389734447 8.5823907873
Fe 56.0144205672 35.9125940799 10.0034161412
Fe 0.019609566 37.3163559609 8.5970285188
Fe 1.4678969098 38.7201847359 10.0571714094
Fe 2.8217042937 37.3442530661 8.5732379123
Fe 4.2940716255 38.7975523967 10.097122357
Fe 5.6954340655 37.3463979258 8.622704138
Fe 7.1684593291 38.7031158445 10.0116562714
Fe 8.5927992287 37.3004594965 8.6015774662
Fe 10.0679893987 38.7746338681 10.0412287459
Fe 11.473423557 37.3487699287 8.5776960171
Fe 12.8775758666 38.7768205364 10.0904640179
Fe 14.3904092085 37.3074969936 8.6415371725
Fe 15.829559193 38.7788042459 10.0071805963
Fe 17.1878034546 37.2563030579 8.6306997101
Fe 18.6173086889 38.7471871838 10.0042833559
Fe 20.1412448111 37.2600888788 8.6386682675
Fe 21.5541112508 38.706684747 9.9991277992
Fe 23.0010642488 37.3064748838 8.6096131298
Fe 24.4085367145 38.7073272779 10.0572457911
Fe 25.7754018166 37.3389093393 8.6114098484
Fe 27.2266115032 38.7958173276 10.0914712923
Fe 28.7250774066 37.2878300463 8.5991642738
Fe 30.1325830563 38.7293012359 10.05493288
Fe 31.5132119214 37.2539486622 8.5607397444
Fe 33.041136067 38.7687290683 9.9893186875
Fe 34.4330088761 37.3677907812 8.6474976411
Fe 35.9183308798 38.7092951172 9.991122747
Fe 37.3232851326 37.2645231683 8.610760123
Fe 38.6974972143 38.7094081419 10.0860693918
Fe 40.2364562205 37.2554467907 8.5881782204
Fe 41.5938866813 38.7832380932 10.0053919871
Fe 43.0705535817 37.3577095184 8.5615893039
Fe 44.4953748091 38.7280423589 10.0232650513
Fe 45.9711282847 37.3318843976 8.6180523998
Fe 47.4033735228 38.6926176846 10.0163848421
Fe 48.8058161463 37.3488278935 8.6510350006
Fe 50.1725249252 38.7790998148 10.0269351634
Fe 51.6686498754 37.2746535437 8.6422914843
Fe 53.0656328194 38.7431107293 10.0685287833
Fe 54.54793927 37.3096987756 8.6436235942
Fe 55.9553608594 38.71063698 10.0193995178
Fe 0.0371282234 40.1773634428 8.6411196737
Fe 1.4628426219 41.6576902396 10.0042939841
Fe 2.8876592796 40.1804816338 8.622541579
Fe 4.2717336087 41.6297939455 10.0256594192
Fe 5.7100008205 40.1664639401 8.6380599799
Fe 7.1245138972 41.6086421725 10.0076328483
Fe 8.6207005283 40.232915728 8.5551237982
Fe 10.0553445375 41.6370589474 10.0827084262
Fe 11.4610204289 40.1772663624 8.6291193874
Fe 12.9642792266 41.6300728139 10.0567318222
Fe 14.3659008836 40.197355111 8.5823632255
Fe 15.7756975805 41.6480172463 10.0282134442
Fe 17.1648850835 40.1784011838 8.6087609727
Fe 18.6079646067 41.5993310853 10.0941634313
Fe 20.0826592427 40.1895052844 8.5948623204
Fe 21.511593484 41.5802839625 10.0351956901
Fe 23.0047267182 40.1298492696 8.6602582629
Fe 24.3441683827 41.6462055396 10.0233323356
Fe 25.8123298338 40.1248213195 8.5842357651
Fe 27.3160877894 41.5941876327 10.0235619917
Fe 28.7005560997 40.2250977126 8.6221370152
Fe 30.1116295949 41.5580274732 10.0031298332
Fe 31.5756107662 40.1640562617 8.6666615515
Fe 33.0346215246 41.6292669948 10.100860039
Fe 34.3863667092 40.1660737043 8.5874897862
Fe 35.8703623281 41.6565907302 10.0896262719
Fe 37.2629913214 40.2065028309 8.610012505
Fe 38.8021970945 41.5776003997 10.0940638966
Fe 40.219504342 40.1568974168 8.6601792283
Fe 41.5727198084 41.6694021392 10.089631095
Fe 43.0428480265 40.1952905776 8.5749015424
Fe 44.5164137881 41.6474663849 10.0345641551
Fe 45.9440381841 40.1408077355 8.6525306968
Fe 47.3950995227 41.6403287911 9.9935757286
Fe 48.8202970365 40.183615159 8.5604862812
Fe 50.2517666854 41.5981472852 10.0555485327
Fe 51.6374125169 40.2319711998 8.6567988968
Fe 53.1206872597 41.6504445467 10.0570323189
Fe 54.476891941 40.1480794868 8.5775859679
Fe 55.9214224985 41.5775027243 10.0176664116
Fe 0.0228547764 42.9985789231 8.6534692811
Fe 1.4385486438 44.4942290786 10.0124877363
Fe 2.8686322851 43.0753497309 8.6037294871
Fe 4.3464374457 44.4911275558 10.0913144935
Fe 5.7860445592 42.9964794872 8.6489284164
Fe 7.153234077 44.5117194025 10.0860723574
Fe 8.6187844324 43.0629818783 8.6141742829
Fe 10.0464028881 44.5096540835 10.0864646369
Fe 11.5325421657 43.0784869085 8.6668789113
Fe 12.9107397829 44.4617250408 10.0624970722
Fe 14.4039147679 43.1001515915 8.564301385
Fe 15.7393518984 44.5053047852 10.0734002692
Fe 17.2117256539 43.0341702287 8.5668294112
Fe 18.6038728375 44.4436546732 10.0633272894
Fe 20.0599902306 43.0453712332 8.6493124294
Fe 21.5431336045 44.5352526456 9.9915697292
Fe 22.9556293775 43.0709736456 8.6165130715
Fe 24.4158588002 44.5237526451 10.0450566981
Fe 25.8781396533 43.0151502062 8.6483085525
Fe 27.2917759863 44.5353340621 10.0654695009
Fe 28.744029824 43.1068155344 8.6489281639
Fe 30.1046038477 44.5044173267 10.007531224
Fe 31.6088070009 43.0234697514 8.6286527885
Fe 33.0211916417 44.4557313418 10.0196491574
Fe 34.4530404854 43.0924711576 8.5740275845
Fe 35.890508385 44.4607958482 10.0271766889
Fe 37.3003199382 43.0964079305 8.6146294106
Fe 38.7870096424 44.4849754904 9.9951476144
Fe 40.1655443491 43.0513778499 8.6166958872
Fe 41.5970020789 44.512472621 10.0745985001
Fe 43.0708321089 43.0764688422 8.6209013773
Fe 44.4532781312 44.5342558489 10.0803925256
Fe 45.9513601958 43.0659010242 8.5758046581
Fe 47.3135632869 44.5290321847 9.9985601169
Fe 48.7763659315 43.0483146498 8.5797025999
Fe 50.2816076113 44.4833582752 10.0712820868
Fe 51.6957169219 43.0962066871 8.6075135975
Fe 53.0891233683 44.4328860201 10.0779808957
Fe 54.4787055253 43.0470160447 8.5883682199
Fe 55.9583197271 44.5260251009 10.0079340644
Fe 57.36428375 45.9562284025 8.5853326655
Fe 1.4307906144 47.3239632218 10.0532162459
Fe 2.8751406166 45.9246576324 8.5541675965
Fe 4.3132893442 47.3494108865 10.0532165041
Fe 5.6905400133 45.9343898406 8.5829187259
Fe 7.1878735689 47.4000351638 10.0452015469
Fe 8.6377368353 45.9368717185 8.6358764749
Fe 10.0340368629 47.3264715059 10.0632663623
Fe 11.4430000213 45.9080136319 8.6316416022
Fe 12.9434781346 47.4033109183 10.0127296026
Fe 14.4043027107 45.9325789422 8.6292540064
Fe 15.7399672139 47.3485403427 10.0053270376
Fe 17.204793202 45.8878798184 8.5622290934
Fe 18.6490270505 47.3794510343 10.0713368274
Fe 20.0591219607 45.916728749 8.5800155745
Fe 21.5203376076 47.4038076411 9.9928676553
Fe 22.9397635483 45.8938642398 8.5736153434
Fe 24.3888029544 47.3993328636 10.0356582531
Fe 25.873131825 45.9617291787 8.6542681
Fe 27.2871064798 47.3633040478 9.9907471441
Fe 28.7441481953 45.949652633 8.5990632085
Fe 30.159142136 47.363784861 10.0167095358
Fe 31.5182455751 45.9368689736 8.5846357104
Fe 33.0416740363 47.3478036954 10.0634273878
Fe 34.3999322735 45.883624909 8.5536548705
Fe 35.9274877877 47.3855328378 10.0912847127
Fe 37.3500982142 45.8664653774 8.5541767515
Fe 38.7016467865 47.4083958277 10.0237973779
Fe 40.2363831203 45.9445045925 8.5880925833
Fe 41.6180465228 47.3628276122 10.0515268235
Fe 43.0418964512 45.8856883501 8.638203038
Fe 44.51317741 47.3364404297 10.0454167382
Fe 45.8804540296 45.959304578 8.6023184998
Fe 47.3141042645 47.3820164589 10.0338238061
Fe 48.7581974091 45.9312521727 8.5970636632
Fe 50.1930889183 47.4053899869 10.0261882384
Fe 51.6365782665 45.87853635 8.6444065877
Fe 53.1371341014 47.3629990088 10.0117407516
Fe 54.5324550778 45.9400962071 8.5728773364
Fe 55.9191646127 47.3419604013 10.0665033491
Fe 57.3874499474 48.8436919953 8.6421333209
Fe 1.3916180237 50.2548982443 10.0896269564
Fe 2.9022184956 48.7870159019 8.5560249425
Fe 4.3382653269 50.2706191538 9.9933496269
Fe 5.6991730433 48.7907971402 8.581368811
Fe 7.2317076525 50.2746753308 10.0328014538
Fe 8.6450431481 48.8447479163 8.5541635003
Fe 10.0236061808 50.1911650404 10.0109563442
Fe 11.4237231108 48.7482148331 8.6626320494
Fe 12.9144347 50.2499730177 10.0857214549
Fe 14.36209903 48.7748253403 8.5798464386
Fe 15.8170672498 50.2763221977 10.0534685956
Fe 17.2133937062 48.7734840243 8.6189159401
Fe 18.6388574706 50.1701866961 10.0479087352
Fe 20.0508770732 48.7716992333 8.5986839845
Fe 21.5534603282 50.1874848672 10.0108698136
Fe 22.9159395178 48.8088473381 8.5646403328
Fe 24.4027828246 50.19290106 10.1010463264
Fe 25.8840633764 48.7472224386 8.570786805
Fe 27.2768482177 50.1935394944 10.0982542507
Fe 28.6724078738 48.7784154532 8.6155562218
Fe 30.1446769424 50.2551847411 10.0543975503
Fe 31.5297435392 48.7483490512 8.6254579032
Fe 33.0010699418 50.1741794003 10.0201747449
Fe 34.3906805643 48.7839813674 8.606491209
Fe 35.8929483282 50.171652454 10.0272739553
Fe 37.2918264984 48.7968853022 8.630463549
Fe 38.8015368731 50.2319530322 10.0550563086
Fe 40.1965790273 48.826831259 8.6406959213
Fe 41.6377760817 50.2752205792 10.0642538313
Fe 43.0113077663 48.7558425396 8.6149423441
Fe 44.4734285012 50.1884541279 10.0627417356
Fe 45.881982153 48.8278634031 8.6431672742
Fe 47.3108017889 50.1783977846 10.0679345718
Fe 48.7932102798 48.7501166573 8.653882408
Fe 50.2247479635 50.20213418 10.0394012826
Fe 51.6135677144 48.7852309046 8.6100188117
Fe 53.128741631 50.2067564412 10.0014047796
Fe 54.4898208802 48.7576295094 8.6629929426
Fe 55.9478025008 50.2460359836 10.0924641323
Fe 0.0505412881 51.6980588238 8.6154951872
Fe 1.4732540899 53.1350774981 10.0713583588
Fe 2.85669951 51.6279011154 8.6141786304
Fe 4.3012117983 53.102143984 10.0089428074
Fe 5.769876841 51.6666813967 8.6639572169
Fe 7.1962298159 53.0638027502 10.0062662866
Fe 8.5868057966 51.6550127191 8.5845777947
Fe 10.0166900675 53.1205581591 10.0265054552
Fe 11.4499933852 51.6271442024 8.6266184363
Fe 12.9128591779 53.0461255641 10.0139607556
Fe 14.342369803 51.6867463525 8.616111441
Fe 15.7277792788 53.1469681164 10.0265141036
Fe 17.2362048644 51.6303233167 8.6259915446
Fe 18.6502116776 53.1267091618 10.0361006283
Fe 20.0655528004 51.620908023 8.62868899
Fe 21.5250886758 53.0722993082 9.990906869
Fe 22.9855021949 51.6229154607 8.6068848187
Fe 24.3585059191 53.063755861 10.066376164
Fe 25.8043980926 51.6990290455 8.6442704634
Fe 27.2852258771 53.0597279077 10.0065762953
Fe 28.6994745295 51.6096009576 8.651067145
Fe 30.1657058659 53.0992187758 10.0343112315
Fe 31.5730005153 51.6161523196 8.5968718731
Fe 33.0602821287 53.1425044593 10.0735337516
Fe 34.4883510695 51.7033455191 8.6665792344
Fe 35.8813317189 53.108614278 9.9943928178
Fe 37.3294548791 51.655589182 8.6194187475
Fe 38.7613941408 53.1040211667 10.0139685789
Fe 40.2206579382 51.6959808542 8.5646330387
Fe 41.6045285641 53.0821342047 10.0569845519
Fe 43.0080178721 51.6219902225 8.6414940688
Fe 44.4316362039 53.0552236953 10.0212164943
Fe 45.8735848451 51.7045895278 8.5755292373
Fe 47.3862302405 53.104676736 10.0170503902
Fe 48.7980114785 51.6148702248 8.5677236789
Fe 50.2264170998 53.0878182684 10.0477801565
Fe 51.6899005772 51.6381511878 8.5744306611
Fe 53.1147330503 53.0698349007 10.0634084492
Fe 54.5770083128 51.6438070875 8.5854236599
Fe 55.9270429035 53.0992359284 10.0869458721
Fe 57.3841028717 54.4748377568 8.6649537102
Fe 1.4219360936 55.9698049311 10.0069847177
Fe 2.9100066119 54.489384573 8.5625723957
Fe 4.3029031471 55.967327672 10.0097071936
Fe 5.7314448223 54.4807748178 8.6194246203
Fe 7.151183975 55.9548500965 10.0967621487
Fe 8.592608538 54.5167109239 8.5845154592
Fe 10.0324497377 55.9962433275 10.0235315875
Fe 11.4887070675 54.556347646 8.6242236339
Fe 12.8641368775 55.9139833373 10.0195520956
Fe 14.3300351869 54.5103306495 8.5652121692
Fe 15.8342612443 55.9758133161 10.0793474974
Fe 17.1993634023 54.5103563357 8.6571026684
Fe 18.6480167988 56.0040457708 10.0725000424
Fe 20.0858009646 54.5854157833 8.6388497521
Fe 21.4801674088 55.9572496685 10.0855824434
Fe 22.9876306816 54.5248847671 8.6220661812
Fe 24.4440885858 55.9087167785 9.9984624701
Fe 25.804276258 54.4975209268 8.6188331766
Fe 27.2784256101 55.9426933883 10.0025599115
Fe 28.6957127223 54.5463057338 8.6508770698
Fe 30.1462511531 55.9408382651 10.0138507117
Fe 31.5223768899 54.5598246857 8.5837224614
Fe 33.0362721541 55.9963489403 10.0398772639
Fe 34.3982271336 54.5738334423 8.5738545158
Fe 35.8313131604 56.0039819226 10.005335649
Fe 37.3252287494 54.5661662709 8.6423876641
Fe 38.7245400483 55.9663608585 10.0840959911
Fe 40.1279310838 54.584611359 8.5588524246
Fe 41.6070693338 56.0056251116 9.9958018051
Fe 43.1074906868 54.4769830084 8.5640318867
Fe 44.4440843659 56.0027547652 10.0166991393
Fe 45.9099739333 54.4731904059 8.616254752
Fe 47.3343679381 55.9774104846 10.0415103049
Fe 48.8248312882 54.5701460791 8.5898774161
Fe 50.2747860354 55.9178893113 10.0352544004
Fe 51.6267518775 54.5401027376 8.5597845428
Fe 53.1270206139 55.9186785305 10.086097399
Fe 54.5287952048 54.5183541564 8.6538874715
Fe 55.9955284668 55.9340188682 10.0272962512
Fe 0.0499142892 0.0556285907 11.4668778069
Fe 1.4323054939 1.3896833327 12.866691935
Fe 2.8836562084 0.0066064598 11.4884652399
Fe 4.3131108061 1.3785617213 12.8740085757
Fe 5.7793328912 0.0089662847 11.514304672
Fe 7.1666343276 1.4522347732 12.8598813769
Fe 8.6117796484 57.3881772157 11.5026118733
Fe 10.0606003386 1.3781052561 12.9535599172
Fe 11.5146554791 57.3626809659 11.4824163122
Fe 12.9510827239 1.4057670181 12.9555095378
Fe 14.3207129028 57.3651274164 11.4782219085
Fe 15.8021450022 1.4753242024 12.8681481973
Fe 17.1691413157 0.0024774339 11.4691608549
Fe 18.6007042802 1.4400279519 12.9473372401
Fe 20.134340754 0.0291996528 11.4640253946
Fe 21.5275428528 1.4332810795 12.8787660506
Fe 22.9197513446 0.0490503167 11.4838100062
Fe 24.4524513603 1.407144101 12.9472103952
Fe 25.8490349036 57.3685458266 11.5356616642
Fe 27.2940474456 1.4365765976 12.8733835092
Fe 28.6501644602 0.0562839194 11.5293545152
Fe 30.1569030758 1.4644940956 12.9236340597
Fe 31.5783211201 57.3479482628 11.4816447761
Fe 33.0553382694 1.4348502148 12.9026609063
Fe 34.4248625242 57.372328053 11.4670139867
Fe 35.9305666793 1.4333850074 12.8801505567
Fe 37.348844517 57.3612199789 11.4614070902
Fe 38.7742114929 1.4236153876 12.9208346683
Fe 40.2336125824 0.013619182 11.4963593291
Fe 41.6329230664 1.4832628499 12.9459121525
Fe 43.0714615649 0.0268314609 11.5179027181
Fe 44.470492854 1.3897576713 12.9002584181
Fe 45.9106278726 57.3586843768 11.4948452634
Fe 47.2997748783 1.4840482376 12.9550413354
Fe 48.7562070932 57.3883905953 11.51431845
Fe 50.2384131451 1.4333641048 12.89016099
Fe 51.6697222166 57.3818125481 11.4320831916
Fe 53.075088197 1.4599484553 12.9090328169
Fe 54.4869439735 57.3568326654 11.4354010459
Fe 55.9353370125 1.481481812 12.8985268462
Fe 0.0249677487 2.8810342242 11.5132380504
Fe 1.4263279991 4.2829212714 12.9532935818
Fe 2.8399862949 2.8630850717 11.4376574491
Fe 4.3356644873 4.3591815384 12.8859359444
Fe 5.7439987472 2.8756024791 11.4395556948
Fe 7.163508515 4.2550657882 12.9614861949
Fe 8.603921452 2.8729191383 11.4604796265
Fe 9.9903359061 4.3482353833 12.8674384474
Fe 11.4954825136 2.9154151228 11.5338490236
Fe 12.8811187481 4.2887849142 12.9724633462
Fe 14.3613976408 2.8660257179 11.4354263903
Fe 15.7285180572 4.2948987207 12.8708401383
Fe 17.2156213306 2.8396630518 11.5230752826
Fe 18.6389138889 4.3298941872 12.9481879559
Fe 20.1294937546 2.8864540337 11.4573202853
Fe 21.4724535914 4.281588931 12.9612526169
Fe 23.00071385 2.8437413688 11.4440585133
Fe 24.3744811176 4.2662022629 12.8802244713
Fe 25.864095809 2.8145749838 11.4508614144
Fe 27.2188239651 4.2552544954 12.9500345401
Fe 28.7016392122 2.8805501067 11.453418317
Fe 30.1892348592 4.2701913374 12.8924847239
Fe 31.6272325783 2.8691974043 11.4246480637
Fe 33.0239564165 4.3512276437 12.958508838
Fe 34.4655610051 2.9083984421 11.4410360488
Fe 35.8823737785 4.3164420312 12.8968740071
Fe 37.2903356459 2.9252362569 11.4502214893
Fe 38.784895465 4.3574837913 12.9086806264
Fe 40.1608285027 2.9096912083 11.4931489276
Fe 41.6682980851 4.3458392099 12.8642402192
Fe 43.0672104566 2.8136706339 11.5047567332
Fe 44.4565685624 4.2567316445 12.9436932565
Fe 45.8850374613 2.8964274778 11.5146810505
Fe 47.3857796768 4.2968825556 12.8671955252
Fe 48.7759645108 2.8220379334 11.4547169287
Fe 50.2256549916 4.3149897964 12.8793261964
Fe 51.6507902162 2.8278227868 11.5124756529
Fe 53.037914995 4.252523588 12.9488636532
Fe 54.5809839794 2.844602731 11.4366226052
Fe 55.9118373076 4.2846953432 12.9102560418
Fe 57.3840491237 5.7893654582 11.4422013372
Fe 1.3902396398 7.1792771865 12.9078137262
Fe 2.9092722662 5.771592457 11.4470674992
Fe 4.362314151 7.2261204168 12.9601440069
Fe 5.7456020046 5.7723404275 11.4393386715
Fe 7.1789382258 7.1597373084 12.8737407679
Fe 8.58311859 5.7801250072 11.4585693356
Fe 10.099879307 7.2023601945 12.9275686774
Fe 11.4879855238 5.736367839 11.4643592378
Fe 12.9153280131 7.1546548087 12.9189312766
Fe 14.3749183391 5.7032094354 11.4818594365
Fe 15.767205519 7.2295531399 12.875171088
Fe 17.1679450829 5.7090282119 11.4389979053
Fe 18.7043814252 7.2183874984 12.8956633637
Fe 20.0481602691 5.733116529 11.4587537261
Fe 21.4886195804 7.2153712619 12.9553680238
Fe 22.9830308121 5.7101281634 11.4454897823
Fe 24.4016656144 7.1636347887 12.9706756469
Fe 25.8818075367 5.7001120748 11.5281068584
Fe 27.258585317 7.1784432469 12.8608991797
Fe 28.72267106 5.7366708314 11.518212722
Fe 30.1045372236 7.2035627857 12.9670122147
Fe 31.5325402282 5.7403147349 11.4377319643
Fe 32.9765442944 7.1416417888 12.9399330294
Fe 34.4403846378 5.7034651196 11.4984025001
Fe 35.8197089889 7.1844755693 12.8674191504
Fe 37.3280287676 5.7233973875 11.5152092262
Fe 38.749776124 7.2070744645 12.9261257694
Fe 40.1770384802 5.7563993471 11.47796601
Fe 41.5795601177 7.2121519638 12.9087550004
Fe 43.0616413284 5.6918233091 11.5048848144
Fe 44.4753518417 7.1723124131 12.9554484369
Fe 45.8723144921 5.786535797 11.4328926767
Fe 47.3248371621 7.1991684379 12.903858393
Fe 48.8117467028 5.7797578305 11.4720089534
Fe 50.2162978466 7.2307031015 12.9215446245
Fe 51.6819834051 5.7245463909 11.4510119151
Fe 53.0532764004 7.2187133827 12.9589642586
Fe 54.5139640615 5.7399166214 11.4319787243
Fe 56.0202377281 7.1772776883 12.885098311
Fe 0.0403813091 8.5613999319 11.4394221271
Fe 1.4181330582 10.0998859523 12.9403860154
Fe 2.8869831401 8.6650244063 11.5099019767
Fe 4.2680659962 10.0397191344 12.9679892963
Fe 5.6856267423 8.6091739204 11.5357953016
Fe 7.1684516865 9.9921323326 12.9155498445
Fe 8.6182257553 8.6323595955 11.4513699912
Fe 10.0052097312 10.0252150577 12.9341183591
Fe 11.4434299919 8.5760885966 11.4877906221
Fe 12.8903449989 10.013073362 12.9191571586
Fe 14.3053570828 8.6472988776 11.4247627388
Fe 15.7861630032 10.0610030194 12.9296223326
Fe 17.1671784951 8.6585301447 11.4775154602
Fe 18.7055397003 10.0139107509 12.9262547379
Fe 20.0955422895 8.6407686801 11.514663823
Fe 21.4995126889 10.0298899297 12.9474701619
Fe 22.953269115 8.6360369831 11.4772512635
Fe 24.3776283042 10.0070554819 12.9305266459
Fe 25.8825577391 8.5527445285 11.5002817037
Fe 27.2529012687 10.0460612673 12.9455866217
Fe 28.6642178431 8.6283374922 11.5288212293
Fe 30.1394809028 10.0173829714 12.9315718368
Fe 31.6032837519 8.5606141324 11.4441514498
Fe 32.9898001754 10.0306389705 12.9532970233
Fe 34.4752996435 8.6675604446 11.4757416031
Fe 35.8608157856 10.0298006296 12.9265184322
Fe 37.259632466 8.6597709946 11.4354358804
Fe 38.7753124589 10.0447631221 12.9698669742
Fe 40.1851082529 8.5890123993 11.4232455927
Fe 41.6147574012 10.0395102109 12.8960885325
Fe 43.0412846357 8.641962898 11.4379327846
Fe 44.4906852423 10.0632837125 12.9188580506
Fe 45.8899793598 8.5683657734 11.4879887422
Fe 47.310601395 9.9987891256 12.8826531596
Fe 48.749437701 8.5594456929 11.432590834
Fe 50.1811369377 10.048109534 12.9232681544
Fe 51.6319216943 8.6625636831 11.520372929
Fe 53.0627933415 10.0731202384 12.9236542257
Fe 54.5042074772 8.5547802728 11.4983132921
Fe 55.9112253927 10.0427820103 12.9402808255
Fe 57.3640444109 11.534563573 11.5350935014
Fe 1.4573575848 12.9067388953 12.9637306164
Fe 2.8284399664 11.4283227296 11.4355054228
Fe 4.3585158491 12.8789959836 12.9006448146
Fe 5.7223806234 11.4721331789 11.501991099
Fe 7.1187340992 12.9099647787 12.8675265783
Fe 8.6027942231 11.4551331597 11.4623983436
Fe 9.9976631201 12.9217533571 12.8804548448
Fe 11.4241388128 11.522735643 11.4857814696
Fe 12.9313321768 12.9680677812 12.9012219494
Fe 14.366102027 11.4417484187 11.533064363
Fe 15.7354267484 12.8814313065 12.9232805715
Fe 17.2039697703 11.4521690777 11.5085873799
Fe 18.6035485295 12.93071165 12.9016275496
Fe 20.1080297879 11.4626077031 11.5136003004
Fe 21.5342729312 12.9080160534 12.8607048574
Fe 22.9952980872 11.4438733431 11.468861954
Fe 24.4382946249 12.8835038836 12.8709873047
Fe 25.7854100079 11.50997073 11.5294623261
Fe 27.3211003169 12.888440026 12.8740793494
Fe 28.7339553131 11.4462853232 11.5122424575
Fe 30.0843332196 12.8639900011 12.8831794493
Fe 31.6039764191 11.5080056349 11.5007087539
Fe 32.9516551537 12.9479444016 12.9374223881
Fe 34.4920520635 11.5232621456 11.4824082672
Fe 35.8432808579 12.9449536803 12.8811878052
Fe 37.3359707969 11.4682826952 11.5051144189
Fe 38.7671576482 12.8717846595 12.8824796137
Fe 40.2032187798 11.5018685011 11.5011733592
Fe 41.6169237859 12.9270282358 12.949095095
Fe 43.0983584904 11.4643223402 11.440168174
Fe 44.5104903884 12.906682764 12.966832091
Fe 45.9316175562 11.4284310544 11.469325481
Fe 47.321619826 12.9546336321 12.9593748764
Fe 48.7774750596 11.4552452629 11.5111139328
Fe 50.2760059996 12.885136756 12.9099968193
Fe 51.6741935773 11.4250852352 11.537415134
Fe 53.1411603915 12.9324838269 12.9054579885
Fe 54.5239933178 11.4593145114 11.4710166033
Fe 55.9146482471 12.9459743699 12.9275475953
Fe 57.3934174413 14.4052247606 11.5214743538
Fe 1.4055474519 15.7379242136 12.8933344075
Fe 2.8129239647 14.3996849491 11.4302446239
Fe 4.3505729053 15.7312059533 12.9210207016
Fe 5.7792824783 14.3376322113 11.5335090824
Fe 7.2095036607 15.8409041351 12.9598178192
Fe 8.6301089401 14.3782575804 11.5074750798
Fe 9.9890930544 15.7689924663 12.9170670273
Fe 11.5056463669 14.3341521522 11.4995028273
Fe 12.8832258468 15.7494042761 12.9132137417
Fe 14.3271490208 14.391098287 11.532463098
Fe 15.8427738845 15.83051327 12.9344950143
Fe 17.1891666069 14.3017993619 11.4590015275
Fe 18.6797744767 15.7467722206 12.9111114879
Fe 20.0863323819 14.3035114971 11.445129106
Fe 21.5388171285 15.7987826764 12.906509683
Fe 22.9142378412 14.3830572899 11.5262662668
Fe 24.4277609925 15.7338160399 12.8944270135
Fe 25.7941466596 14.3447388807 11.5305553806
Fe 27.3194885134 15.7543356011 12.9317457974
Fe 28.7500754619 14.4011084827 11.424964747
Fe 30.1881690293 15.8374617351 12.9620587253
Fe 31.5611729876 14.3068465743 11.4586497349
Fe 32.9608622298 15.7605734905 12.9715027131
Fe 34.4723998014 14.32157258 11.5083037232
Fe 35.8720135805 15.8390290896 12.8668152544
Fe 37.3652345126 14.3531475481 11.4569624869
Fe 38.7331645048 15.7313212637 12.9180327665
Fe 40.1596663117 14.3282687121 11.4323917345
Fe 41.5972874349 15.7531938337 12.9359386371
Fe 43.0736279407 14.3045983749 11.5245591259
Fe 44.4588962648 15.7886330847 12.8752966966
Fe 45.9191021387 14.3299293531 11.4665683417
Fe 47.3913965785 15.7487104869 12.9075342366
Fe 48.7427191063 14.2965710959 11.4660369607
Fe 50.2127574134 15.7502895097 12.9578222957
Fe 51.6314012964 14.3243806336 11.4517425281
Fe 53.1479537645 15.7889159627 12.9602312396
Fe 54.4796023869 14.3531700376 11.5335672057
Fe 55.9938957691 15.7735409622 12.8836677214
Fe 57.3932010922 17.2669698716 11.4886581379
Fe 1.4831249928 18.5978740639 12.9596758098
Fe 2.8716030951 17.1748859131 11.4747226961
Fe 4.3221380486 18.6198635492 12.9392522039
Fe 5.7187956773 17.2183134251 11.4799837173
Fe 7.1354578323 18.6756581128 12.9022887488
Fe 8.6413748508 17.1972284271 11.4466344706
Fe 10.0781318701 18.6328177904 12.8581198735
Fe 11.5170160374 17.1802990826 11.4734427684
Fe 12.8604261291 18.6184987125 12.9029323222
Fe 14.3235386164 17.215002473 11.4335947042
Fe 15.7683389428 18.7033460729 12.9140161034
Fe 17.2350268196 17.2537950639 11.4826355671
Fe 18.6009160658 18.6569974076 12.9377461869
Fe 20.0665532748 17.2250936398 11.4669366817
Fe 21.5804568172 18.6814648969 12.9627393304
Fe 22.9894582242 17.1866392594 11.4659624201
Fe 24.4118688216 18.6582473251 12.9528088456
Fe 25.8708578794 17.2340501562 11.4635026998
Fe 27.236638352 18.6097908031 12.9711774141
Fe 28.6987531052 17.2095185144 11.4236599458
Fe 30.1677710311 18.692193588 12.9083240795
Fe 31.6098435217 17.2578979381 11.5293720008
Fe 32.9517274464 18.6405033833 12.8994065381
Fe 34.4341500017 17.2683000725 11.5253891471
Fe 35.9063511237 18.6952682523 12.9595918199
Fe 37.259460455 17.2231056514 11.4283749116
Fe 38.7349248652 18.6149181944 12.8890555439
Fe 40.1966047014 17.2560480008 11.4406528807
Fe 41.5691684241 18.6530901344 12.923174437
Fe 43.0378206876 17.2361173964 11.4898462
Fe 44.4405585264 18.6107735736 12.8709968394
Fe 45.9114075769 17.2070505703 11.4758290781
Fe 47.3138536798 18.6513224988 12.9495460242
Fe 48.8135183597 17.1989269065 11.4943320316
Fe 50.2380594667 18.6285664352 12.8775488442
Fe 51.6851855028 17.1824976281 11.4352768908
Fe 53.1138073574 18.5983990436 12.8980457593
Fe 54.5189948888 17.1682688012 11.4890080493
Fe 55.9406856677 18.6481033848 12.9098838743
Fe 57.3499090844 20.0952240434 11.4305922586
Fe 1.4510210526 21.5103438735 12.9482306162
Fe 2.8488105096 20.0374467728 11.5077494429
Fe 4.2925769471 21.4777080565 12.8986437545
Fe 5.7018796559 20.1293538264 11.4861508321
Fe 7.2040978165 21.5597173907 12.8808591433
Fe 8.6278456925 20.06631926 11.4886742105
Fe 10.04740515 21.5307128464 12.8577899831
Fe 11.5227175692 20.0508851257 11.5092966965
Fe 12.9508518507 21.49966373 12.9148097978
Fe 14.3888556584 20.0355075407 11.4851915783
Fe 15.7479122649 21.4705950794 12.8617526809
Fe 17.2180070562 20.1372890617 11.4741688991
Fe 18.6364183784 21.5217991881 12.9374249417
Fe 20.1086591745 20.0519786934 11.4982728911
Fe 21.5233487323 21.5044352779 12.9621438344
Fe 22.9967342131 20.0850011312 11.4449968423
Fe 24.3783883955 21.4815067707 12.9073036809
Fe 25.8112137527 20.0874153942 11.5207441053
Fe 27.2291963669 21.5668224014 12.946708383
Fe 28.7180221897 20.1403599566 11.5287146992
Fe 30.1217041391 21.494783815 12.9364746593
Fe 31.602437485 20.0594355786 11.4484982945
Fe 32.9941765866 21.5601905044 12.9105854815
Fe 34.3850776569 20.0941348362 11.4671325386
Fe 35.8486793535 21.5098660445 12.9018675333
Fe 37.2841982847 20.0480939607 11.530217978
Fe 38.7612036538 21.5604428792 12.9466884818
Fe 40.1255407604 20.1439276115 11.5165215489
Fe 41.5719401928 21.5156735496 12.9388623874
Fe 43.0293337529 20.1412046989 11.4738151671
Fe 44.4293491611 21.518987049 12.8678417258
Fe 45.8970705387 20.1167044024 11.5069413665
Fe 47.3261426598 21.5356572986 12.9695010993
Fe 48.8379402228 20.0416962113 11.497974435
Fe 50.2209998254 21.5750532636 12.9639093261
Fe 51.6737865785 20.0404066197 11.4510292803
Fe 53.0805942615 21.4926255568 12.917723822
Fe 54.5478372995 20.1424602429 11.44548413
Fe 56.0227829838 21.5429708521 12.8980435568
Fe 0.0232193847 22.9548463255 11.437021118
Fe 1.3982274609 24.3948294089 12.9003112095
Fe 2.8555382559 22.9990352858 11.4851101195
Fe 4.3240295021 24.4110990389 12.9696324021
Fe 5.7197517358 22.9178955284 11.4797139555
Fe 7.1238074451 24.4282228132 12.8606144937
Fe 8.6262300014 22.9605602364 11.5146942368
Fe 10.0947256415 24.3487359721 12.8943614334
Fe 11.4431521088 22.9502920805 11.4712801816
Fe 12.9192463667 24.3993706794 12.8645547894
Fe 14.3756690931 22.9927527964 11.4820296048
Fe 15.7971603085 24.365328133 12.9013507769
Fe 17.1757805974 22.9532419334 11.4732722601
Fe 18.6136838867 24.418691041 12.877933177
Fe 20.0906819692 22.9379558705 11.4339016227
Fe 21.5222178558 24.3750388232 12.9319427447
Fe 22.983739394 22.9831268535 11.4642547561
Fe 24.3933076984 24.4422896315 12.8724318605
Fe 25.7987368325 22.9943233488 11.4236694634
Fe 27.2676966078 24.4063827179 12.9709885367
Fe 28.6793724547 22.9649626683 11.5296148748
Fe 30.1358025794 24.4185302787 12.9667246634
Fe 31.5857237264 22.9145356778 11.4989125162
Fe 33.0012854763 24.4474481176 12.8734448051
Fe 34.4762881122 22.9896100346 11.5063541036
Fe 35.852551954 24.3653687514 12.9693963856
Fe 37.2588273344 22.9942841256 11.4487308239
Fe 38.7074347629 24.3551909406 12.9451411553
Fe 40.1699818651 22.916803546 11.5245684209
Fe 41.5787859005 24.437927304 12.9224936977
Fe 43.0061390856 22.9921052789 11.4658506561
Fe 44.5383154913 24.4075391995 12.9409688055
Fe 45.9439128144 22.9525659549 11.529350523
Fe 47.3583921165 24.3395699565 12.9438929121
Fe 48.7343765405 22.951352193 11.4232623076
Fe 50.2020820615 24.4007181102 12.9480893465
Fe 51.7060821974 22.9646284271 11.4519034701
Fe 53.0496381254 24.4509291687 12.8911641576
Fe 54.5722141366 22.92081357 11.4367014131
Fe 55.9294959513 24.3453541759 12.9583530181
Fe 57.3946495387 25.8091263164 11.4388508506
Fe 1.3855370695 27.2141075384 12.9260042548
Fe 2.8688500036 25.8219186624 11.5044885819
Fe 4.3328076032 27.2246769271 12.9412849635
Fe 5.7945396991 25.812384769 11.5074052179
Fe 7.1433368524 27.2775620726 12.8639396717
Fe 8.634633067 25.8497706753 11.4367624441
Fe 10.0365936882 27.2873570666 12.9240154694
Fe 11.508055548 25.8002041508 11.4515027763
Fe 12.912343856 27.2276397779 12.9006678897
Fe 14.3766448318 25.8702982869 11.449807666
Fe 15.8046894629 27.3077605902 12.9138430258
Fe 17.2264232415 25.7833283762 11.4725065753
Fe 18.6655791645 27.2383741694 12.9584697974
Fe 20.1269382459 25.8858025873 11.4668348962
Fe 21.5317934986 27.2168426839 12.9029689622
Fe 22.9682602225 25.7893670184 11.537319942
Fe 24.378049797 27.2410112999 12.8924792419
Fe 25.8588137124 25.7793877142 11.4265312051
Fe 27.2801732664 27.2487864136 12.9320535058
Fe 28.6946726521 25.8032181197 11.5157000335
Fe 30.1191327502 27.2627314509 12.9348659497
Fe 31.5164034307 25.8831655946 11.4810034449
Fe 32.9593210005 27.2410533669 12.8971713618
Fe 34.440822336 25.8128687653 11.53449155
Fe 35.9190069548 27.2163095253 12.8926568163
Fe 37.312865908 25.8628018881 11.4826670295
Fe 38.7905073992 27.2528006873 12.90063694
Fe 40.1467289166 25.7892018988 11.4405128987
Fe 41.6547619454 27.2269789716 12.9073811339
Fe 43.053899164 25.8303959668 11.4670589618
Fe 44.4396973237 27.2992631639 12.9260502716
Fe 45.9194624873 25.7850648256 11.4808181384
Fe 47.319111243 27.2860865881 12.9361555232
Fe 48.8080111004 25.8237707294 11.5305698219
Fe 50.2174266732 27.2110868624 12.9429654342
Fe 51.6678990639 25.8310213608 11.5017974844
Fe 53.1177932206 27.2076034582 12.9094735277
Fe 54.5018183544 25.8854301561 11.47998925
Fe 55.9506898268 27.3118556512 12.9483042175
Fe 0.0320813285 28.6758465718 11.4919541802
Fe 1.4053738457 30.1885549991 12.9441901558
Fe 2.8333762314 28.687106856 11.5071490752
Fe 4.3138634822 30.1694582356 12.8748897251
Fe 5.7880824762 28.6541169517 11.428975145
Fe 7.2186922288 30.1225815241 12.903270594
Fe 8.567442709 28.731178046 11.4374193645
Fe 10.085801097 30.1208289804 12.9078721767
Fe 11.4674935068 28.7276794431 11.4889776239
Fe 12.870844876 30.1281538244 12.9207985402
Fe 14.3926373974 28.7523222996 11.4548582223
Fe 15.8125499969 30.1659696191 12.9304459877
Fe 17.2642319409 28.7219689255 11.4283796729
Fe 18.6015095175 30.1510177128 12.8663739344
Fe 20.0570995596 28.6669336839 11.4810852609
Fe 21.4690294907 30.1453864815 12.8900193351
Fe 22.9080022946 28.7489203696 11.4272418304
Fe 24.3504629768 30.1742930866 12.9160996849
Fe 25.8195354407 28.6503202894 11.5069279362
Fe 27.2818069366 30.1602111946 12.8828295521
Fe 28.7323764378 28.7282552048 11.5153949295
Fe 30.156432148 30.171104739 12.8995462107
Fe 31.5705744834 28.6798532694 11.4707197336
Fe 32.9919566579 30.1449201115 12.9592734026
Fe 34.4812480163 28.7447142534 11.4949081718
Fe 35.9008171868 30.1328709285 12.8991858943
Fe 37.3071558412 28.6450253616 11.5085627109
Fe 38.7013868782 30.1259958216 12.9437877933
Fe 40.1539589408 28.6618998214 11.4354590343
Fe 41.6199347362 30.1287778145 12.951335559
Fe 43.0096719734 28.6943094479 11.4589495739
Fe 44.4349331497 30.1167167337 12.8789226697
Fe 45.9288068979 28.7566782499 11.5171027562
Fe 47.3883702331 30.1159809579 12.9314977253
Fe 48.7911013674 28.6636564827 11.5274049771
Fe 50.2063259274 30.1533358758 12.9624512719
Fe 51.6152610408 28.6758659365 11.4960874054
Fe 53.0676440817 30.144036085 12.8714952308
Fe 54.4843401889 28.7431617545 11.5051017565
Fe 55.9506094331 30.0819349454 12.9420347105
Fe 57.3908521026 31.5620699897 11.5013385286
Fe 1.4754218854 32.9890626943 12.8601235083
Fe 2.8707691984 31.5692946126 11.522762893
Fe 4.2593085665 32.9542425468 12.9663096316
Fe 5.7528113944 31.5590960374 11.4794243586
Fe 7.118601889 33.0297260058 12.9505803046
Fe 8.6014593007 31.5657312311 11.4285732019
Fe 10.0731676424 33.0196576412 12.9534921287
Fe 11.4361547705 31.6020458625 11.4508782641
Fe 12.909869714 33.0033523298 12.9536362513
Fe 14.3028504412 31.5504297869 11.5162214861
Fe 15.7510276093 32.9927396201 12.9091022999
Fe 17.2666503525 31.5303422956 11.4765003969
Fe 18.6328929213 33.0394264097 12.9494977016
Fe 20.1315487231 31.5222089674 11.4591073921
Fe 21.4973824666 32.9738950094 12.9383264767
Fe 22.9186897963 31.5693522205 11.4445581411
Fe 24.3693665056 33.0341199276 12.9119588597
Fe 25.8117762098 31.5285994219 11.5060249847
Fe 27.2190859696 32.9511408716 12.8703828579
Fe 28.7574966252 31.6006669681 11.4299472466
Fe 30.1233116809 32.9492426178 12.867728011
Fe 31.584196144 31.5533194208 11.5042152537
Fe 32.9575924571 33.0532694377 12.8688145258
Fe 34.4620182428 31.6191378264 11.4667249333
Fe 35.9101244882 33.0233274257 12.9112066771
Fe 37.3124918746 31.5578835072 11.474873134
Fe 38.7126397814 33.0426688894 12.9500303432
Fe 40.1279943792 31.5132899173 11.5099455773
Fe 41.5575845275 33.0361834117 12.9632822965
Fe 43.0544924864 31.5447575081 11.5021196919
Fe 44.4963841506 32.983362746 12.9510914278
Fe 45.8812199295 31.6163708875 11.485977551
Fe 47.3003300727 33.0392740839 12.9097488688
Fe 48.7900740871 31.6207749287 11.5352815154
Fe 50.2121569127 33.0338439679 12.9183334174
Fe 51.6133144274 31.5331357067 11.4884343014
Fe 53.0763584883 32.9574673001 12.8745792787
Fe 54.5538983214 31.5746491232 11.4854082344
Fe 55.9868827368 32.9697108443 12.9158163718
Fe 0.056154023 34.4440624178 11.536879471
Fe 1.4620314989 35.8560710531 12.92046685
Fe 2.9120431076 34.4757061626 11.4386416295
Fe 4.2657371253 35.892225426 12.9347557469
Fe 5.7208067938 34.4304424441 11.4368824947
Fe 7.196411959 35.8699567309 12.9446505119
Fe 8.5824297021 34.4852665286 11.5295596523
Fe 10.0327983512 35.881353095 12.9073833969
Fe 11.5280716573 34.4027497201 11.5121687024
Fe 12.8876685755 35.8874023802 12.9359354525
Fe 14.40610597 34.4451059349 11.4530360204
Fe 15.8424682924 35.8198720891 12.8737300104
Fe 17.2073553331 34.4946891603 11.4806405759
Fe 18.7098674466 35.8636690934 12.8948809443
Fe 20.1176149971 34.4288072067 11.4265337732
Fe 21.4830629465 35.8407654385 12.882057536
Fe 22.9042698027 34.3838687141 11.4226884591
Fe 24.4505825425 35.8523143144 12.8945114231
Fe 25.8377045382 34.4896495303 11.5181462344
Fe 27.2830316429 35.838570364 12.9077556906
Fe 28.6968304534 34.440378305 11.4664619845
Fe 30.1671725465 35.8410602614 12.9347196002
Fe 31.5531568274 34.472479339 11.4478945145
Fe 32.9741713081 35.8870617274 12.9111189655
Fe 34.4711298697 34.3907505818 11.4350229188
Fe 35.8900324807 35.924552254 12.9709965115
Fe 37.3467913459 34.4677996806 11.5206598912
Fe 38.7438880618 35.8334813042 12.9707619913
Fe 40.2061606421 34.4910600821 11.4676579262
Fe 41.5904500329 35.831351258 12.8978945221
Fe 43.04780057 34.4217985079 11.5202975935
Fe 44.5039433186 35.8193999762 12.9141438392
Fe 45.8698293082 34.482168108 11.5162487849
Fe 47.3173403974 35.8186368236 12.8909443315
Fe 48.7359588218 34.4355411974 11.4531015431
Fe 50.168852548 35.865614241 12.8844341948
Fe 51.6096902389 34.4053614062 11.4925253314
Fe 53.1129868685 35.890584358 12.9250762139
Fe 54.5732720585 34.419516695 11.5033720153
Fe 55.9472333873 35.9151191397 12.9004548009
Fe 57.3863885271 37.3587080406 11.4633888317
Fe 1.44675824 38.7641199573 12.9627873457
Fe 2.8814249138 37.3144367684 11.4718559174
Fe 4.252470807 38.7645651247 12.9166989331
Fe 5.7093387637 37.3203536842 11.4706136775
Fe 7.1481255092 38.7571060603 12.9090387409
Fe 8.6246565107 37.2612753782 11.4434220071
Fe 10.026716545 38.7848499645 12.9018715109
Fe 11.523602906 37.2896337702 11.490301954
Fe 12.9662016015 38.7937829908 12.8595542685
Fe 14.3372821153 37.3175111194 11.4991947917
Fe 15.7677060525 38.6972956363 12.9505016494
Fe 17.2625124388 37.2814532463 11.4991317878
Fe 18.6285575147 38.751884703 12.9559357587
Fe 20.1018721746 37.294158399 11.4413894511
Fe 21.4935675057 38.7409993769 12.9147254549
Fe 22.9422836297 37.3281509306 11.5297115602
Fe 24.3570994406 38.7974627937 12.9180524268
Fe 25.8751212373 37.2790967074 11.4396879437
Fe 27.2249710236 38.7969601025 12.9625804994
Fe 28.7083511708 37.3651593101 11.5134152018
Fe 30.1383630661 38.7426701673 12.8604895629
Fe 31.5490320283 37.3191910862 11.4375516897
Fe 33.0581116824 38.7806512886 12.9606257196
Fe 34.4977109437 37.2885909057 11.4909752247
Fe 35.9092880941 38.7621622735 12.8857343822
Fe 37.3184157087 37.3192062041 11.4709022904
Fe 38.765458381 38.7963287255 12.9145515407
Fe 40.2097299643 37.2862431819 11.5101522123
Fe 41.5617007725 38.7573677326 12.9207324491
Fe 43.0846211378 37.3229865764 11.4864015188
Fe 44.5235450556 38.7369332213 12.8763518021
Fe 45.9409657919 37.2655952197 11.4531246612
Fe 47.3666015575 38.7155944358 12.8670759244
Fe 48.7637055912 37.3129245721 11.506485604
Fe 50.1881560861 38.7973818025 12.9022535871
Fe 51.6336995099 37.3054622638 11.513017687
Fe 53.1262874899 38.7103972767 12.9240284906
Fe 54.4956304528 37.3128655189 11.4318271258
Fe 55.9145600644 38.7030044627 12.8637395375
Fe 0.0443652728 40.1350439843 11.4691794343
Fe 1.4873229396 41.5579126332 12.9252642538
Fe 2.8980012103 40.1672024352 11.4822778642
Fe 4.2574754181 41.6650224779 12.95689291
Fe 5.7538699269 40.2043615966 11.5235383839
Fe 7.2200556237 41.5883710218 12.9292720163
Fe 8.5853486112 40.1848351377 11.4278836161
Fe 10.1014018786 41.5666913261 12.9203748747
Fe 11.5089391951 40.1596584019 11.5145132405
Fe 12.8732250213 41.6683875141 12.9038980326
Fe 14.3885505284 40.1882870765 11.498484467
Fe 15.7468873269 41.5864097691 12.9513797264
Fe 17.2632531877 40.1654168666 11.4255820153
Fe 18.6075155069 41.6643071778 12.9608840931
Fe 20.0809453253 40.2345030433 11.5312829196
Fe 21.4845209851 41.6519789447 12.926193706
Fe 22.9342697414 40.1894716865 11.4810964912
Fe 24.4030036102 41.5708439808 12.9447808507
Fe 25.7782815421 40.2309161003 11.5281883458
Fe 27.2724904177 41.6335003872 12.8994747722
Fe 28.7552866811 40.1989009773 11.4613770075
Fe 30.1010382237 41.6519174725 12.9342108146
Fe 31.6208945185 40.1852638733 11.5049963753
Fe 32.9972473408 41.6060950401 12.9721807966
Fe 34.4116849737 40.215055338 11.5061598841
Fe 35.9316747835 41.6377589279 12.8863287841
Fe 37.2677049055 40.1999421002 11.4731837034
Fe 38.7826011464 41.6425751766 12.8943815246
Fe 40.1252385488 40.2236208273 11.4241679848
Fe 41.5815910442 41.5667470883 12.9349951396
Fe 43.0240737079 40.1606316495 11.4571295557
Fe 44.5293936075 41.602961689 12.9540973677
Fe 45.8684595086 40.156048829 11.4452219093
Fe 47.3144833942 41.6179893044 12.9110989534
Fe 48.7614795561 40.2263604319 11.4772213176
Fe 50.2240137065 41.6029523223 12.8744890074
Fe 51.6283992323 40.2353568118 11.4758455698
Fe 53.1243306306 41.592669758 12.8754170012
Fe 54.4836463082 40.1329949084 11.4666629671
Fe 55.9439013199 41.5836697904 12.9445002273
Fe 57.3710504997 43.0008441277 11.5132674574
Fe 1.4683362232 44.4695658609 12.8770272586
Fe 2.9269478201 43.0678642645 11.4694667067
Fe 4.2533946885 44.4668958884 12.9696209795
Fe 5.717232112 43.0068145685 11.446864285
Fe 7.1760893691 44.4533067095 12.8655928844
Fe 8.5858122887 43.0830993593 11.5047435586
Fe 10.0967762069 44.4458952229 12.9176916552
Fe 11.4460262783 43.0043750479 11.4248779926
Fe 12.8616670616 44.4279788465 12.8595510739
Fe 14.3621064794 43.0071029339 11.4626591739
Fe 15.8318684191 44.503692949 12.9136063889
Fe 17.1762620965 43.0367475952 11.5018845209
Fe 18.6374689897 44.4789424653 12.9463435535
Fe 20.1347704521 43.1054154109 11.451871447
Fe 21.4956325182 44.5157805216 12.9009247662
Fe 22.9240200246 43.0091644344 11.4438805871
Fe 24.3820014284 44.540959855 12.8574350608
Fe 25.8000193047 43.0531524242 11.5339411148
Fe 27.2257157098 44.5387665508 12.9181729894
Fe 28.7532459398 43.0268129828 11.4653825629
Fe 30.1581616347 44.4665699797 12.9597341038
Fe 31.5889745892 43.0105343387 11.4662475515
Fe 32.9986527902 44.5209974327 12.8819562667
Fe 34.4168956088 43.0164005568 11.4237885731
Fe 35.8436296569 44.479141868 12.9168652438
Fe 37.2555352427 43.0230803786 11.4988517564
Fe 38.7448047701 44.470469041 12.9373362522
Fe 40.1733802632 43.0207257657 11.4814801412
Fe 41.6155059821 44.5359470853 12.8915150595
Fe 43.0086742307 43.0559828734 11.5282496034
Fe 44.4432890085 44.4333268523 12.9288182604
Fe 45.9738527534 43.0615731313 11.4699772841
Fe 47.2977487667 44.4512941247 12.906105872
Fe 48.7822715787 43.0371759594 11.4569003238
Fe 50.2165498367 44.4339328007 12.9308958095
Fe 51.7140534968 43.0773790079 11.4776035753
Fe 53.1389097115 44.5229260038 12.8821311746
Fe 54.5116565629 43.0003475795 11.4224847602
Fe 56.010457362 44.4906104067 12.8745548596
Fe 57.3774683618 45.9098958513 11.4314647796
Fe 1.4297814257 47.3551048259 12.8639859796
Fe 2.8245461977 45.9541862897 11.4621193462
Fe 4.2787130708 47.352310136 12.9604903596
Fe 5.6913792537 45.8997960682 11.535775582
Fe 7.1801518115 47.3047278583 12.9642254719
Fe 8.6095735145 45.9175303015 11.5359324827
Fe 10.0624809134 47.302659944 12.941634658
Fe 11.5029660648 45.9749088854 11.4718122609
Fe 12.8948121073 47.3624443399 12.8788076267
Fe 14.3571772345 45.864894066 11.5189815851
Fe 15.8389432637 47.3388441124 12.8848050898
Fe 17.165695463 45.9185190443 11.4921408435
Fe 18.6907174826 47.3553948308 12.9556779678
Fe 20.0404424983 45.9165538251 11.4825734179
Fe 21.5310875194 47.4068600023 12.8633324976
Fe 22.9739098602 45.9307108999 11.4781459817
Fe 24.3644980914 47.3380401906 12.8591932367
Fe 25.8455714058 45.9747721589 11.4974069332
Fe 27.2779787744 47.3604088007 12.9017100504
Fe 28.7153767731 45.8947577752 11.4291301994
Fe 30.1255490612 47.3045995883 12.9630834244
Fe 31.6251093801 45.9713363036 11.4331026076
Fe 32.9765373725 47.3012097067 12.8767207172
Fe 34.4768753878 45.8912198404 11.4289636699
Fe 35.8584070234 47.4039482765 12.8876453666
Fe 37.364401832 45.8633008647 11.4588499832
Fe 38.7025364416 47.3111601556 12.8926673415
Fe 40.155459264 45.9153749678 11.5276085606
Fe 41.6153350013 47.3380251739 12.9277338748
Fe 43.0131388201 45.953991283 11.5153879881
Fe 44.5367342626 47.3095607019 12.8612132088
Fe 45.947305588 45.8667497341 11.4390243443
Fe 47.3924671437 47.3285422144 12.8938338981
Fe 48.747706471 45.9379003742 11.4958520923
Fe 50.2190973661 47.345346138 12.9276886195
Fe 51.6879072564 45.9362070606 11.5012147277
Fe 53.0470770164 47.3554162967 12.9147215844
Fe 54.5019640884 45.9515883084 11.5285105502
Fe 55.9360131303 47.4073185339 12.9195825849
Fe 0.0296194908 48.8033077468 11.5199043435
Fe 1.465227313 50.2347150383 12.9576626718
Fe 2.851811087 48.8297574016 11.5286463528
Fe 4.3329701585 50.2769662348 12.9394455217
Fe 5.755810528 48.7435957614 11.4987230772
Fe 7.1782185703 50.1740694892 12.8577265413
Fe 8.6389027073 48.7846357413 11.4942236405
Fe 10.0519924734 50.261290496 12.9596200483
Fe 11.4905991666 48.792524724 11.4506221579
Fe 12.8855055994 50.2756549269 12.9666775341
Fe 14.349050151 48.7763593845 11.4830570372
Fe 15.8129751791 50.2468127552 12.8864214385
Fe 17.269605338 48.8195648106 11.4591021719
Fe 18.7051420329 50.1837151944 12.9212916229
Fe 20.0354581711 48.7379010805 11.4829632384
Fe 21.572698725 50.2470844282 12.9173480774
Fe 22.9540009584 48.8415226067 11.4461760014
Fe 24.4303422159 50.1730571962 12.9724775994
Fe 25.7845871556 48.8424052546 11.4725683931
Fe 27.2725185052 50.2359259901 12.8952671065
Fe 28.7169899445 48.7457106249 11.4309333405
Fe 30.1860978339 50.1777185809 12.9007873841
Fe 31.5599534536 48.7752422165 11.4592748979
Fe 32.9660122195 50.2439929078 12.9332395279
Fe 34.4723940337 48.7559462518 11.4977179069
Fe 35.9268541466 50.2740103278 12.8652016942
Fe 37.27492548 48.7993801382 11.4269896909
Fe 38.7125839884 50.2443949562 12.9004359715
Fe 40.1629657513 48.7921073679 11.4526122659
Fe 41.6639301053 50.2785070651 12.885966191
Fe 43.0245541793 48.8263232517 11.5326230935
Fe 44.4732571903 50.2392634936 12.9272854051
Fe 45.8912136179 48.8384250091 11.4995914621
Fe 47.3076843798 50.2231589025 12.9596358992
Fe 48.8123981734 48.8432880201 11.5211140761
Fe 50.2720308999 50.2002080847 12.8686962937
Fe 51.6548342144 48.800761859 11.5120978022
Fe 53.1003973006 50.2184727884 12.9165376367
Fe 54.5654083794 48.7352290052 11.5138209727
Fe 56.0045916132 50.183804644 12.9149761012
Fe 57.3876718726 51.6084177915 11.4609082594
Fe 1.388316529 53.12066598 12.8948339383
Fe 2.9119702986 51.620905989 11.4223850015
Fe 4.2584441768 53.0970301972 12.8996518063
Fe 5.6828675378 51.6602721309 11.483311578
Fe 7.1230214277 53.0579201114 12.876690044
Fe 8.6110108084 51.7039551431 11.4285917212
Fe 10.0398147763 53.0618274772 12.9236284285
Fe 11.5223031963 51.6978233346 11.5094833086
Fe 12.9724133643 53.0810222356 12.9186094942
Fe 14.4019584343 51.6945800608 11.5102601553
Fe 15.7399211601 53.0509449318 12.9519915136
Fe 17.1771230832 51.6175978018 11.495384024
Fe 18.6822679784 53.0744765137 12.9514613379
Fe 20.0864777877 51.6077140213 11.515069973
Fe 21.498323688 53.1298456483 12.9350880145
Fe 22.991086405 51.7147820316 11.4645085697
Fe 24.4418249169 53.117700837 12.9546078148
Fe 25.8139003864 51.6806528178 11.4708529813
Fe 27.2657383306 53.0999805732 12.9047490939
Fe 28.7282071114 51.6996825278 11.4495502412
Fe 30.1464283809 53.0589121021 12.9045947433
Fe 31.5383610374 51.6597353849 11.4719308103
Fe 33.0521792428 53.1342844949 12.8588387776
Fe 34.3927773523 51.6912512852 11.4253363085
Fe 35.8874952525 53.0376135657 12.9474040481
Fe 37.3549221009 51.6586692505 11.4851882693
Fe 38.7219821137 53.0580706294 12.8749592998
Fe 40.1387332006 51.6079146722 11.5181173959
Fe 41.6572133574 53.1433116196 12.9727090482
Fe 43.0394043321 51.6346384612 11.4789431903
Fe 44.4822464399 53.1136669145 12.9265517497
Fe 45.9005269742 51.6303542448 11.469406994
Fe 47.4021809257 53.1033197787 12.8616656037
Fe 48.8267796028 51.6231742812 11.4920399715
Fe 50.1688886032 53.1041188157 12.9334196591
Fe 51.6964179363 51.6716741093 11.4648712018
Fe 53.0743347479 53.0688672846 12.9369273737
Fe 54.475781133 51.6532314072 11.5086124534
Fe 55.9404284947 53.1509087347 12.9607980538
Fe 57.3873942845 54.5120259068 11.4634801973
Fe 1.4399840257 55.9957431263 12.956930105
Fe 2.8221321083 54.4762610318 11.4944295006
Fe 4.3544023617 55.9810174654 12.8850939698
Fe 5.7792318258 54.5717990302 11.5315379123
Fe 7.2166086392 55.9875349153 12.9296819806
Fe 8.592427304 54.5621398402 11.4805836356
Fe 10.0338456829 56.0138966453 12.9595864466
Fe 11.4392763235 54.5137435064 11.4589520714
Fe 12.9543703688 56.0003058262 12.8888615699
Fe 14.3899367175 54.5401123923 11.4617181089
Fe 15.8252439808 55.9833560862 12.9399786116
Fe 17.193794833 54.5857257395 11.4557129614
Fe 18.7063908665 55.9376989323 12.8697195341
Fe 20.124733077 54.4731298899 11.4274265045
Fe 21.4974445523 55.9607005331 12.9317521851
Fe 23.0039643126 54.5421481418 11.4277134383
Fe 24.4514739804 55.9297553478 12.9389532801
Fe 25.8671937679 54.4833223047 11.4224348471
Fe 27.2149567388 56.0085958438 12.9569145288
Fe 28.7139487478 54.4768295814 11.5109570788
Fe 30.1187931295 56.0183446058 12.9157004644
Fe 31.5167830596 54.5271008462 11.4285874008
Fe 33.0024003967 55.9957765874 12.9498165327
Fe 34.4233317855 54.4854591327 11.4706182546
Fe 35.8531866121 55.912536005 12.8889788824
Fe 37.2759156243 54.5131407276 11.4457598403
Fe 38.7353826727 55.9600104503 12.903614052
Fe 40.138993652 54.4870757969 11.4730969334
Fe 41.6168851973 55.9896772046 12.9610497986
Fe 43.0109714104 54.5767515819 11.4304036823
Fe 44.4285933337 55.9797950841 12.9492315396
Fe 45.9705813854 54.5162812509 11.4446412929
Fe 47.3955524185 55.977175055 12.8982197612
Fe 48.826756293 54.4732882078 11.5337470579
Fe 50.2568796622 55.9849666581 12.9541070542
Fe 51.649896532 54.5530574359 11.4514737293
Fe 53.0855192138 55.9537273782 12.8970325609
Fe 54.5182650812 54.5815808801 11.4818524423
Fe 55.9978936703 55.954439758 12.8893771934
Fe 57.3657910305 57.3597933782 14.3458726882
Fe 1.3861681909 1.4311985403 15.7814539035
Fe 2.8636066886 57.362358127 14.3205122096
Fe 4.3145877264 1.4293346957 15.8346911116
Fe 5.7311818971 0.0377008687 14.3853746078
Fe 7.1399732063 1.4186830089 15.8256587811
Fe 8.6288455499 0.0349815068 14.3775773772
Fe 10.0196238672 1.4702574646 15.797123508
Fe 11.5368050801 57.3914744405 14.3312917248
Fe 12.8766237251 1.3820784604 15.7758341158
Fe 14.3884277795 0.041184486 14.3727281872
Fe 15.7871680312 1.3898234808 15.8214427652
Fe 17.1939049327 0.0087666423 14.3480682154
Fe 18.6803693953 1.4163481358 15.7470160035
Fe 20.0867846007 0.040892362 14.365544264
Fe 21.4793490924 1.4731525593 15.7398140227
Fe 22.999720639 57.3932262548 14.3919137086
Fe 24.3427508125 1.4352245624 15.8290947121
Fe 25.7929937258 0.0032827911 14.3386603084
Fe 27.2988316059 1.4068310376 15.7922939921
Fe 28.734839909 0.0398241306 14.364689571
Fe 30.0969911569 1.4365398378 15.8340722269
Fe 31.6215493195 0.0028950833 14.3849395168
Fe 32.9555497486 1.4347550796 15.8017996323
Fe 34.384329463 0.053423032 14.3300758283
Fe 35.8797965756 1.4618915537 15.784532266
Fe 37.2532951689 57.3585581621 14.3532757198
Fe 38.740047525 1.4648425227 15.7347280918
Fe 40.1257566549 0.0407450196 14.3934802255
Fe 41.609941561 1.4477853728 15.7775239226
Fe 43.0039409118 1.68239162e-04 14.3553576582
Fe 44.5225201728 1.4184529272 15.7377382739
Fe 45.8710576107 0.0397986703 14.3281778369
Fe 47.3755023892 1.4074616274 15.7867163355
Fe 48.8024555058 0.0282183459 14.3744126399
Fe 50.2339327266 1.4803060851 15.8282104439
Fe 51.6035766584 0.0043705242 14.3837161962
Fe 53.1105960509 1.4763744673 15.7956190811
Fe 54.5369463975 0.0268315175 14.4052688293
Fe 55.961284491 1.4384806321 15.787718677
Fe 57.3683944385 2.8820397481 14.3040083208
Fe 1.4035273912 4.3291906135 15.7527418897
Fe 2.9277413487 2.8197622278 14.3333478657
Fe 4.2546300779 4.3601054198 15.7580613631
Fe 5.7808874509 2.9062621235 14.2954762821
Fe 7.1198768959 4.2474196126 15.8071398409
Fe 8.5869028792 2.8679193129 14.4005966022
Fe 10.0181871362 4.3288702662 15.7458233982
Fe 11.4325612755 2.8719306522 14.3554711051
Fe 12.8806856583 4.3480324902 15.7448044443
Fe 14.30098778 2.8491779851 14.3271404216
Fe 15.7844318525 4.3615087918 15.8363794757
Fe 17.1739660969 2.9181836693 14.3593043256
Fe 18.680762134 4.2601031013 15.7658980591
Fe 20.1052839395 2.8923988171 14.3617663219
Fe 21.5807649746 4.259416307 15.8151276599
Fe 22.9771416044 2.8630937248 14.3672951473
Fe 24.4364382445 4.2499799753 15.7436775397
Fe 25.8751920515 2.8799943048 14.3136749496
Fe 27.3117076525 4.3388525159 15.7982892927
Fe 28.7256290144 2.8138366514 14.3339413085
Fe 30.1886178758 4.2810292867 15.8191814699
Fe 31.6130061913 2.8477435015 14.3438469574
Fe 32.9730747696 4.3013684737 15.777693762
Fe 34.4096577237 2.9214697532 14.3913062125
Fe 35.9147746408 4.3075684365 15.79415101
Fe 37.2848642005 2.8885455919 14.3627831179
Fe 38.7026881891 4.2551692985 15.7498696908
Fe 40.1409657944 2.8260102868 14.3086010863
Fe 41.5975624386 4.2838077994 15.8128631311
Fe 43.0967455233 2.8847426808 14.3145259504
Fe 44.4808155526 4.2606266026 15.7383062326
Fe 45.9065278417 2.9258176939 14.3885626966
Fe 47.4023928996 4.2919400884 15.7403389406
Fe 48.8213200859 2.8945577255 14.354412007
Fe 50.1858178388 4.2805860265 15.790612845
Fe 51.6750424954 2.9261190571 14.4012269557
Fe 53.047263489 4.3127309621 15.7386374467
Fe 54.4743560387 2.8205489644 14.3217562034
Fe 55.925168915 4.2727067772 15.8252490695
Fe 57.3805433037 5.7527226507 14.3653413365
Fe 1.4560674614 7.2071225919 15.7338190022
Fe 2.8319089311 5.694491172 14.3410238885
Fe 4.2914956353 7.1230802985 15.7755916675
Fe 5.7077153842 5.7937815892 14.3587078862
Fe 7.1703957891 7.2255947885 15.8227064381
Fe 8.6013837354 5.795138965 14.3546082139
Fe 10.0358197917 7.1534938537 15.8078524211
Fe 11.4674232148 5.7170067412 14.3475618358
Fe 12.8820270703 7.1717768331 15.7770170023
Fe 14.3098699518 5.7615308829 14.3635666686
Fe 15.7998694427 7.1265221402 15.7415509811
Fe 17.2589498807 5.7779580245 14.3470137076
Fe 18.6447718826 7.1721228376 15.7862208003
Fe 20.1332539691 5.7404587543 14.2963155272
Fe 21.55990119 7.1722290563 15.7802137344
Fe 22.9091069977 5.7015052689 14.2929571948
Fe 24.3478993437 7.1778055732 15.7648840859
Fe 25.7810355988 5.7279007791 14.3217636165
Fe 27.2427694746 7.1802281769 15.7335190848
Fe 28.6635875949 5.7806200562 14.3447086592
Fe 30.1559138999 7.1911025232 15.7365667561
Fe 31.5389753933 5.7074492733 14.304361973
Fe 32.9755328434 7.1738540928 15.7924807529
Fe 34.464445773 5.7618396847 14.4042820669
Fe 35.8779536924 7.1486976325 15.7432402523
Fe 37.2981615718 5.7232044022 14.3191010774
Fe 38.7604199636 7.206059638 15.7873459937
Fe 40.1301687757 5.7526320454 14.3319994448
Fe 41.6050147356 7.1958732169 15.8229602742
Fe 43.0611546369 5.7100822659 14.3684868125
Fe 44.4488385522 7.2038522721 15.8369043382
Fe 45.9669507366 5.7408977651 14.3711625084
Fe 47.3580912019 7.1253326063 15.7647601801
Fe 48.7715141129 5.7051375886 14.3074115184
Fe 50.205387235 7.2187486914 15.7777047692
Fe 51.6726343918 5.7953374754 14.3154346085
Fe 53.1507492619 7.1956978474 15.7823614132
Fe 54.5513959213 5.6847389356 14.3531959085
Fe 55.9870830483 7.1490306148 15.817945107
Fe 0.0456223888 8.64364552 14.3132938578
Fe 1.4652185733 10.0108932206 15.8359086039
Fe 2.8707689492 8.5779575516 14.3516403239
Fe 4.2739001302 10.0105781497 15.7967083716
Fe 5.7402297043 8.6293307362 14.3916134675
Fe 7.2129719168 9.9981042462 15.7867893256
Fe 8.6150254292 8.6463442915 14.3948101032
Fe 10.0472150114 10.0880574623 15.8373929372
Fe 11.5066487055 8.5901033305 14.3713147612
Fe 12.8679688473 10.0397239233 15.8138228376
Fe 14.2947894092 8.6438996405 14.3151079382
Fe 15.7764866273 10.0327716588 15.8263943889
Fe 17.2656168807 8.661971429 14.2945129604
Fe 18.6077880049 10.0109217817 15.782024009
Fe 20.080383475 8.6484195348 14.2969863555
Fe 21.4713827947 10.0377823574 15.7749829395
Fe 22.9051837916 8.5760474691 14.3172621625
Fe 24.4200068789 10.0222198707 15.766342629
Fe 25.8398218065 8.5780335692 14.3609926475
Fe 27.2314525916 10.0263081025 15.7605004423
Fe 28.6736617422 8.5787178682 14.2981348039
Fe 30.1073209458 10.0197262772 15.7729437671
Fe 31.5200510351 8.6367013202 14.3626446182
Fe 33.0407825081 10.0398940576 15.8281825495
Fe 34.4896132812 8.569899907 14.3293750854
Fe 35.8670432058 10.0285696959 15.7787416379
Fe 37.2987557975 8.6522747446 14.3680269234
Fe 38.7678027327 10.0943310911 15.7866295753
Fe 40.1500079456 8.6094166208 14.3431769722
Fe 41.6270584731 10.0393594057 15.7806738646
Fe 43.0873985651 8.5547704301 14.363077263
Fe 44.458761495 10.0309006412 15.8151529606
Fe 45.9537542771 8.6168194133 14.4020545453
Fe 47.3160889518 10.0901444636 15.7596960395
Fe 48.8371656959 8.6340659755 14.327582754
Fe 50.1845122917 10.0375950873 15.7518440697
Fe 51.6314363219 8.5909094966 14.4023739701
Fe 53.0656789675 10.0126409874 15.7831823865
Fe 54.5257890341 8.5638191414 14.3816956444
Fe 55.9458884399 10.0481059497 15.732181043
Fe 0.03096704 11.5125404189 14.3552503293
Fe 1.4723498842 12.8612647026 15.7844070016
Fe 2.8745311336 11.499590295 14.3503142675
Fe 4.3416946088 12.938424949 15.8211412828
Fe 5.7563435663 11.4427296052 14.3204092159
Fe 7.2110877055 12.8990394713 15.8055720542
Fe 8.5768595725 11.4405467211 14.3638488702
Fe 10.083310868 12.8679866063 15.7641029113
Fe 11.5197267338 11.5026396985 14.3738052308
Fe 12.9369932704 12.939875614 15.8214685017
Fe 14.3673922339 11.453672941 14.3935949243
Fe 15.8174372279 12.9074469708 15.7668131299
Fe 17.2173383683 11.4630299915 14.3953922763
Fe 18.6785294948 12.9541990661 15.780168499
Fe 20.0882681578 11.5126158063 14.3915068059
Fe 21.574856452 12.9301444768 15.762345599
Fe 22.9988258961 11.4502617983 14.3481349073
Fe 24.393472831 12.8945656977 15.8244157572
Fe 25.8720578597 11.4264110088 14.3374178475
Fe 27.2451061286 12.936293288 15.8026516586
Fe 28.7325128967 11.4956107256 14.3767979613
Fe 30.0866186694 12.931853529 15.7279259689
Fe 31.6101939974 11.5084340626 14.310986759
Fe 32.9728137304 12.9375613016 15.7352772402
Fe 34.427555889 11.459908152 14.3129126347
Fe 35.9073567402 12.8591222501 15.7762257785
Fe 37.3482484231 11.4788140358 14.3910750797
Fe 38.7872317546 12.9381094187 15.776308121
Fe 40.1632417472 11.4616781319 14.3208410662
Fe 41.6195297909 12.8815670823 15.7874636658
Fe 43.062395522 11.5351206492 14.4056508321
Fe 44.4606676203 12.9628239716 15.7449767701
Fe 45.9274099261 11.5359016934 14.3762607215
Fe 47.3488710847 12.91386687 15.7650822408
Fe 48.7399173927 11.4762337554 14.3741597146
Fe 50.2665342153 12.9117620064 15.794229667
Fe 51.6894824196 11.4805270213 14.3772793483
Fe 53.1006170442 12.8898899482 15.7446164595
Fe 54.559980117 11.422565001 14.3680706644
Fe 55.9863568901 12.8694334692 15.774830598
Fe 0.0125020337 14.324475162 14.3881795866
Fe 1.4242061248 15.8259623057 15.8332411521
Fe 2.900095063 14.3368549626 14.3194100439
Fe 4.3136250146 15.8076794047 15.8158542392
Fe 5.7002841591 14.3463182935 14.3337265916
Fe 7.1649687158 15.799545875 15.7456860764
Fe 8.627829942 14.2996941398 14.3731474971
Fe 10.0405970068 15.7899479037 15.8317750132
Fe 11.5057688099 14.4061971563 14.3782763844
Fe 12.954033935 15.8023199988 15.8080923028
Fe 14.3510237784 14.3994333089 14.3067831774
Fe 15.8295262247 15.7580220906 15.8395553004
Fe 17.2488877173 14.2974723787 14.4076449214
Fe 18.6028257666 15.7322466993 15.8155419087
Fe 20.1078106576 14.3617857189 14.3671204879
Fe 21.5153730648 15.8258532275 15.7505390346
Fe 22.9358370134 14.3006283848 14.3773476362
Fe 24.3676271303 15.7603128298 15.8340405644
Fe 25.8311412182 14.3991359621 14.3280182376
Fe 27.3133350833 15.7494366229 15.7907951445
Fe 28.6876982461 14.3348693096 14.3210259223
Fe 30.1019392364 15.7541766162 15.7912349734
Fe 31.5125917163 14.3398743149 14.3889848913
Fe 32.9661691377 15.8193710763 15.7497251092
Fe 34.4724747365 14.3326032034 14.3552528484
Fe 35.9013469751 15.7970223773 15.7366756527
Fe 37.3575455209 14.3940167895 14.3400308364
Fe 38.691217812 15.7279919974 15.7434242756
Fe 40.1892700973 14.3506828396 14.3144900269
Fe 41.5616005835 15.7352301566 15.7575092094
Fe 43.0145488462 14.3308099631 14.3552660275
Fe 44.5067583315 15.7978357144 15.825294405
Fe 45.8892052237 14.3168789913 14.3731532874
Fe 47.3085048392 15.7431711135 15.7703120716
Fe 48.7660389091 14.3560436231 14.3866615251
Fe 50.2759012228 15.7781230102 15.7505948048
Fe 51.6418632235 14.3059477466 14.3254309589
Fe 53.1374513571 15.7691603844 15.8316800724
Fe 54.5846450676 14.3985928974 14.3925198569
Fe 55.9736408139 15.7724692009 15.7870464864
Fe 0.0189485542 17.2473122043 14.3961715854
Fe 1.4140321378 18.6124565527 15.8095418714
Fe 2.815333951 17.196052684 14.3609395571
Fe 4.3254831012 18.6893425576 15.831341417
Fe 5.7743644015 17.2162504152 14.296658642
Fe 7.1560883413 18.6347156652 15.8385489274
Fe 8.5940391396 17.1682149169 14.3326216733
Fe 10.1027415503 18.6779612402 15.7962381633
Fe 11.4281074595 17.2706630541 14.3229499624
Fe 12.8822973965 18.7073472822 15.8376317755
Fe 14.3443744616 17.25950662 14.3728280554
Fe 15.8239634013 18.7091352935 15.8251068069
Fe 17.1723022878 17.2394300016 14.2993959277
Fe 18.6567052642 18.7093962671 15.8281398914
Fe 20.0470598055 17.1947855927 14.3759358208
Fe 21.4832181298 18.6918412872 15.7661036706
Fe 22.9455784373 17.1780390221 14.3413885096
Fe 24.4399632149 18.6119046306 15.7862430298
Fe 25.8542677318 17.1879282648 14.3329589672
Fe 27.2904764995 18.6546295445 15.7488953406
Fe 28.6819495943 17.1999940578 14.3288374062
Fe 30.0807099225 18.6974224758 15.7949809634
Fe 31.5234079747 17.2030877063 14.3169991627
Fe 33.0530501075 18.6673211926 15.7948578769
Fe 34.4665250195 17.2447672942 14.3879079247
Fe 35.8712841878 18.6433687834 15.803334138
Fe 37.3654862341 17.2768669615 14.302391986
Fe 38.7914381519 18.6822959522 15.7474755596
Fe 40.189344466 17.2216870132 14.3793516619
Fe 41.5920082694 18.6202727672 15.7407937905
Fe 43.0254613395 17.2161637594 14.3024626384
Fe 44.4553710871 18.7078110551 15.8381035964
Fe 45.8778907374 17.2766317759 14.3337309992
Fe 47.3190596283 18.6411427572 15.7373922224
Fe 48.7599795041 17.1929754081 14.3126005987
Fe 50.2800623971 18.6698488171 15.8016939561
Fe 51.6156132496 17.2498857431 14.3003338203
Fe 53.1215410274 18.6011108142 15.7282160258
Fe 54.5067930828 17.1644674377 14.349317365
Fe 55.9768038578 18.6982927005 15.7596952841
Fe 0.0485330551 20.1368527202 14.3930793563
Fe 1.4235151518 21.5069436332 15.8011202631
Fe 2.9168895567 20.0634355863 14.3984468395
Fe 4.280109642 21.4715701797 15.7608602688
Fe 5.7434287125 20.110787761 14.3711899135
Fe 7.2194386677 21.5373234474 15.8388787825
Fe 8.6406011353 20.1388722535 14.3347888557
Fe 9.9932827138 21.493790018 15.7788540205
Fe 11.4932597063 20.1308847537 14.3978058243
Fe 12.9027072211 21.5122813354 15.7907951987
Fe 14.3800024192 20.1338197795 14.3802675627
Fe 15.812761531 21.4940717329 15.754226375
Fe 17.196488308 20.0339243699 14.3720850095
Fe 18.6710612233 21.5335779251 15.812600169
Fe 20.0736699913 20.0427575272 14.2958727725
Fe 21.5533425464 21.5641722164 15.7879961978
Fe 22.9750294936 20.0329659146 14.3675788634
Fe 24.4491333793 21.569750158 15.8326722608
Fe 25.8454969646 20.0398305433 14.355260451
Fe 27.2229121001 21.4827236656 15.8038096826
Fe 28.7041951145 20.1303489194 14.338858571
Fe 30.0913995795 21.5211891127 15.752173478
Fe 31.5426805067 20.1241987981 14.3282297384
Fe 32.9669438787 21.5721527565 15.7850589667
Fe 34.4492989755 20.1335324237 14.36727373
Fe 35.8430908093 21.5533690725 15.7917040054
Fe 37.3359113439 20.1299083375 14.4053117009
Fe 38.7776993916 21.5378096754 15.8244328581
Fe 40.1854337747 20.0507688873 14.3501676449
Fe 41.6179783374 21.5085084517 15.7642807614
Fe 43.0897551191 20.0503506063 14.4037742062
Fe 44.5388082514 21.5090901318 15.7783220627
Fe 45.9114764899 20.1428513763 14.3573219302
Fe 47.4075953928 21.5429689239 15.7743785107
Fe 48.8166965431 20.053349091 14.2926769782
Fe 50.2569200271 21.5351328535 15.7580275025
Fe 51.6411684058 20.0478258869 14.3880389293
Fe 53.0841425511 21.5477735883 15.7798815527
Fe 54.5622548863 20.0509666109 14.3860091407
Fe 55.9230756861 21.534640659 15.8379568859
Fe 0.0471003751 22.9086650012 14.3239580119
Fe 1.4885711551 24.3791199425 15.8007515397
Fe 2.8628890451 22.9605117048 14.3335552146
Fe 4.3033616906 24.4195903497 15.7544560144
Fe 5.7080892898 22.9203936561 14.3062699527
Fe 7.2278526938 24.4123326081 15.7390790502
Fe 8.6376825387 22.902877634 14.2949802662
Fe 10.0533229192 24.4008274035 15.7716295019
Fe 11.5211823827 22.9914087577 14.3622505091
Fe 12.9221050779 24.3948257248 15.7958307765
Fe 14.2928085085 22.997959492 14.3258030665
Fe 15.7946747517 24.340563398 15.8170603886
Fe 17.2555133185 22.9731097001 14.344393028
Fe 18.6727892046 24.3450987027 15.7583019654
Fe 20.1154674712 22.9583023552 14.3149676426
Fe 21.5026808169 24.3530166158 15.7571822298
Fe 22.9421218466 22.9265090671 14.3302924524
Fe 24.3574043739 24.3822173498 15.8162632138
Fe 25.7955568638 22.9911400477 14.3759562335
Fe 27.297271254 24.3636470454 15.7342386231
Fe 28.6753980015 22.965536894 14.3823697375
Fe 30.1655523459 24.4269884957 15.8395619473
Fe 31.5985212018 22.9140251515 14.3705745411
Fe 33.0302810772 24.3678152949 15.7989287726
Fe 34.4701955622 22.9725051843 14.3096150121
Fe 35.8682646652 24.3664054213 15.8333433197
Fe 37.360145231 22.9764730637 14.3532528718
Fe 38.777396044 24.433160861 15.7581201213
Fe 40.2151754059 22.9732089572 14.3991099113
Fe 41.6019539377 24.4042797383 15.7978786763
Fe 43.0524369354 23.007328261 14.3059032938
Fe 44.4725265357 24.3840060232 15.8390154644
Fe 45.9516012791 22.9894153157 14.2953517819
Fe 47.3302728058 24.3923100318 15.7621990365
Fe 48.841493147 22.9811883628 14.3842407065
Fe 50.2246677685 24.3586999306 15.7673214115
Fe 51.7132870226 22.9212733575 14.3723515746
Fe 53.112621934 24.3881354611 15.7627891634
Fe 54.5207877355 22.9157466781 14.354356234
Fe 55.9115831934 24.3920206625 15.8001346068
Fe 57.3665030846 25.7886356406 14.3310367422
Fe 1.4265986964 27.2687258067 15.8326041774
Fe 2.8497576537 25.8196436255 14.3905685708
Fe 4.2834096638 27.2512485784 15.7322108658
Fe 5.717414322 25.8731555783 14.3454843851
Fe 7.2134585793 27.2292189977 15.7294277253
Fe 8.6266890706 25.8524607782 14.3692408043
Fe 10.0527442642 27.2842555423 15.822910251
Fe 11.4989683257 25.8355761831 14.3162031369
Fe 12.8965534081 27.2410863625 15.7464933208
Fe 14.3705038619 25.8626205765 14.2990374375
Fe 15.7405712021 27.2503481997 15.7752304697
Fe 17.2230670838 25.8824668161 14.3607264351
Fe 18.7032521075 27.2973670665 15.838691428
Fe 20.1314197014 25.7769228524 14.3611073304
Fe 21.4923016091 27.2640211499 15.7673354203
Fe 22.9257082756 25.8367488619 14.3201134147
Fe 24.4234770735 27.3179040621 15.8136982204
Fe 25.8280190137 25.8163131336 14.4002266942
Fe 27.2836760708 27.2254728347 15.7377479532
Fe 28.6974560991 25.8279793267 14.3805019731
Fe 30.1483224612 27.2840958858 15.7589179408
Fe 31.5453501697 25.8425994189 14.2935630124
Fe 33.0028969125 27.3008587462 15.7466011969
Fe 34.4626037036 25.8516255183 14.3774721161
Fe 35.8554546805 27.3085853486 15.8053665446
Fe 37.3670448363 25.7977778037 14.3479490579
Fe 38.6966168914 27.2379503562 15.8260956848
Fe 40.2109890149 25.8562958841 14.3559317063
Fe 41.5611639165 27.2081601721 15.8159584783
Fe 42.9926976418 25.8199448657 14.3643297535
Fe 44.4905685712 27.3208871062 15.7553024726
Fe 45.8888592653 25.7852825344 14.392635803
Fe 47.310707906 27.3028205683 15.834719899
Fe 48.8125890854 25.8066823435 14.3316860157
Fe 50.2608931725 27.2471775268 15.8260784119
Fe 51.6301633388 25.8175128807 14.4049989241
Fe 53.089219789 27.2378859759 15.8078460624
Fe 54.5377633999 25.7870252504 14.3079359579
Fe 55.930440373 27.2997880747 15.807628738
Fe 57.346856342 28.6840001826 14.3089739599
Fe 1.4901237213 30.1898580299 15.7516758806
Fe 2.8865209822 28.7489245211 14.4039999262
Fe 4.2881490462 30.140967045 15.7696714454
Fe 5.7660668831 28.7189667073 14.3066595367
Fe 7.1547820092 30.156776908 15.8294516615
Fe 8.5574996561 28.6959252406 14.3019777499
Fe 10.0876965818 30.1534220737 15.7939143304
Fe 11.425515516 28.7053152146 14.376283643
Fe 12.9581282262 30.1803091371 15.8022727426
Fe 14.3217871119 28.6814940582 14.3428526277
Fe 15.7892891365 30.1393160802 15.7790860882
Fe 17.2761051393 28.7299428075 14.3108538563
Fe 18.6325370397 30.0854902037 15.8224342647
Fe 20.1196402516 28.7214094591 14.3896665861
Fe 21.5733417108 30.1363516424 15.7624034509
Fe 22.9504839685 28.684224077 14.3043781244
Fe 24.3990190736 30.1856950348 15.8191357705
Fe 25.8297530281 28.6856462904 14.3768089679
Fe 27.2732505861 30.1917779566 15.7702583244
Fe 28.7087431051 28.6444135772 14.4045022092
Fe 30.173850891 30.0964006207 15.8290806536
Fe 31.5858516812 28.6651840977 14.3743699846
Fe 32.9744775935 30.1182174746 15.7928374728
Fe 34.4353157211 28.6730175407 14.3288823098
Fe 35.8945036725 30.0797326535 15.7813227012
Fe 37.3410525077 28.6892266312 14.3196816049
Fe 38.688145487 30.1281620546 15.8051169608
Fe 40.155567373 28.6824620368 14.348644947
Fe 41.5600007296 30.1459539287 15.7484463068
Fe 43.100398863 28.6720654701 14.3431579696
Fe 44.4836067465 30.1727633509 15.8007558737
Fe 45.9345406336 28.6652259714 14.3944606193
Fe 47.3170296663 30.1364666328 15.818876636
Fe 48.8022603775 28.7448013832 14.3185665728
Fe 50.1918102432 30.1275758853 15.8078379517
Fe 51.6840957583 28.6726609998 14.3275367288
Fe 53.038162146 30.1925428252 15.8097741285
Fe 54.5753721128 28.723089032 14.3971338698
Fe 55.9584147926 30.0978526192 15.7901392199
Fe 57.3880971669 31.5154481246 14.3883489825
Fe 1.4099122869 32.9620174462 15.7550370498
Fe 2.8153043383 31.5839272728 14.3267060098
Fe 4.3501260232 32.985221345 15.7718152963
Fe 5.7275834167 31.6227835368 14.3864168007
Fe 7.1403416161 33.0565703656 15.8404000643
Fe 8.6552068915 31.5942363758 14.3513359394
Fe 10.034647488 33.0560459806 15.8154550365
Fe 11.4859320475 31.5525691634 14.3558211045
Fe 12.9634583663 32.9656137948 15.7513066935
Fe 14.3257993806 31.5618378901 14.3420946723
Fe 15.8048920441 33.0097684588 15.7928938253
Fe 17.2702058434 31.5167206491 14.3733589278
Fe 18.695276593 33.0351201551 15.7608720328
Fe 20.1090159812 31.613808618 14.307156333
Fe 21.4699089863 33.029579964 15.8316789386
Fe 23.0137053947 31.6012069243 14.3468554848
Fe 24.34763298 33.0092148836 15.7932679388
Fe 25.7935062782 31.6137639724 14.4015223536
Fe 27.2292522944 33.0130087445 15.7596854963
Fe 28.7525778813 31.5441061493 14.3595769762
Fe 30.087551946 33.0274262495 15.7887243249
Fe 31.613011737 31.5317519033 14.3046676957
Fe 33.0290399747 33.0246369727 15.7296366494
Fe 34.4210256242 31.5626831968 14.327446385
Fe 35.9320539391 33.028724176 15.7896975503
Fe 37.2528797045 31.6249738786 14.3499092434
Fe 38.7553644118 32.9801915641 15.7621768076
Fe 40.2152786341 31.5474089604 14.3758508532
Fe 41.6177962486 33.0454509235 15.7976803341
Fe 43.0235748036 31.5334918851 14.3411326074
Fe 44.502972762 33.0313278576 15.7488694247
Fe 45.9383187848 31.5839451844 14.2992106892
Fe 47.3902304884 32.9889133518 15.8160708366
Fe 48.7362040978 31.5373115971 14.3982036211
Fe 50.1962690342 32.9631927747 15.8215065139
Fe 51.6402672764 31.5787587289 14.3211993355
Fe 53.041883999 32.9930587425 15.7542258611
Fe 54.4807455016 31.5860099107 14.3068171861
Fe 56.0211175215 33.0550851998 15.7507886582
Fe 0.026669602 34.4602834734 14.3138474012
Fe 1.478875916 35.9270892373 15.8231982146
Fe 2.8538589403 34.4937061063 14.3066434539
Fe 4.3450702614 35.8474816545 15.7767621988
Fe 5.7225585394 34.4803762855 14.3325630393
Fe 7.2173896788 35.8643297214 15.8091973383
Fe 8.570972414 34.4338256751 14.4069994243
Fe 10.0238223321 35.8411151208 15.7486449868
Fe 11.5338331412 34.4948414513 14.3644457772
Fe 12.8921914284 35.9034166005 15.73997139
Fe 14.2928928521 34.4882283186 14.4011696248
Fe 15.7949066976 35.8235828017 15.8135959398
Fe 17.2327664377 34.4349787564 14.3858963639
Fe 18.6160835498 35.8881603218 15.7778499068
Fe 20.1137046557 34.4224194924 14.3579318435
Fe 21.4951984376 35.9060733495 15.8169332816
Fe 22.9336341845 34.4900885443 14.3617039639
Fe 24.4463536792 35.9176643716 15.8323336521
Fe 25.7815963137 34.3999354677 14.3639557938
Fe 27.2179993215 35.8569140194 15.8088293795
Fe 28.6913609135 34.4936700995 14.3928841471
Fe 30.1845341175 35.9220376202 15.810655498
Fe 31.5747918138 34.3825082498 14.3666218322
Fe 32.9712667052 35.8841016044 15.8072142026
Fe 34.4119461941 34.4873188392 14.3216661056
Fe 35.9111940841 35.9102399826 15.7286191721
Fe 37.2669884119 34.4786633392 14.3527004503
Fe 38.7633242349 35.823627224 15.7427516781
Fe 40.2248502334 34.4299148914 14.3810321953
Fe 41.5614699571 35.8556883525 15.8299331499
Fe 43.0065283212 34.3970061777 14.3108784225
Fe 44.5074488304 35.8352444842 15.7423800196
Fe 45.9107035888 34.3956414596 14.3358408013
Fe 47.3496004924 35.8522929159 15.7881287517
Fe 48.8144429961 34.4170367685 14.3034530076
Fe 50.239384196 35.8915300085 15.8039913961
Fe 51.6615454344 34.407564944 14.3094432516
Fe 53.0500727523 35.9000080944 15.7607873584
Fe 54.5650975347 34.386409867 14.298712504
Fe 56.0088953496 35.8866815123 15.7432026013
Fe 0.0082575353 37.299522709 14.3059503016
Fe 1.3929590136 38.7841563081 15.7587243387
Fe 2.9194328634 37.3551903441 14.3755208103
Fe 4.3338425765 38.6916916435 15.7483173584
Fe 5.7524301186 37.3157787021 14.3246093754
Fe 7.1283161293 38.7564149486 15.8417314521
Fe 8.612423412 37.3085019058 14.3471198719
Fe 10.088876536 38.7708323217 15.7455122684
Fe 11.4557022829 37.297586076 14.384568568
Fe 12.9132500974 38.7521455013 15.7756249181
Fe 14.399513988 37.2643702418 14.3660669005
Fe 15.7941048838 38.7277934951 15.7578984748
Fe 17.2546262891 37.355306702 14.3737173883
Fe 18.6701114548 38.7086505149 15.7397290729
Fe 20.049092242 37.2922178614 14.4040569887
Fe 21.5579598547 38.7023223365 15.7994066212
Fe 22.929045788 37.2968195671 14.4058057162
Fe 24.4471564666 38.6874971658 15.7890067335
Fe 25.8737217929 37.291698083 14.3831703731
Fe 27.2730633685 38.7051270872 15.7965755099
Fe 28.681929885 37.3571136778 14.3476595394
Fe 30.1418098223 38.7195032566 15.7397130464
Fe 31.6124955964 37.263538038 14.3168551963
Fe 33.0508355006 38.7230299974 15.7650093128
Fe 34.4551145198 37.292079829 14.3395947531
Fe 35.9328339027 38.7697092745 15.7601790479
Fe 37.3520745139 37.2559537803 14.4067910283
Fe 38.7756681262 38.7208411389 15.768007416
Fe 40.162311335 37.3295324514 14.3757831299
Fe 41.559635313 38.8010326582 15.7452329249
Fe 43.0452295227 37.2789370818 14.3636635813
Fe 44.473869691 38.7579691398 15.7652371796
Fe 45.8732883525 37.3311467438 14.3980397475
Fe 47.3933664016 38.7974854808 15.7659326476
Fe 48.8136417133 37.2817041918 14.3551735776
Fe 50.1813947406 38.7615564742 15.8385850023
Fe 51.6484246858 37.3079811096 14.3192394895
Fe 53.0764058751 38.773138829 15.7339388662
Fe 54.5870613963 37.3274255767 14.3106701087
Fe 56.0077054192 38.7310114838 15.7723088547
Fe 57.3431374726 40.1848948893 14.3057214218
Fe 1.4725979461 41.6034840444 15.8311628059
Fe 2.8345470125 40.1466200656 14.3956054415
Fe 4.3259157604 41.6031017418 15.7928487427
Fe 5.6867845076 40.2236686216 14.3572410479
Fe 7.1689495882 41.6631551637 15.7432625743
Fe 8.6507506613 40.1592946807 14.3578031432
Fe 10.0237774094 41.6467251454 15.8016160525
Fe 11.4568448876 40.1975495388 14.4058139939
Fe 12.9548673108 41.6027188375 15.7699570877
Fe 14.3312631937 40.2210395543 14.4026301727
Fe 15.7341189063 41.6661259313 15.8405493099
Fe 17.1958460557 40.230788975 14.3346451675
Fe 18.6393524387 41.6633236843 15.7315092816
Fe 20.1103833419 40.1441469227 14.3924437675
Fe 21.5770136018 41.5667038242 15.734984381
Fe 22.9762568974 40.1442834039 14.3456406628
Fe 24.3744537132 41.6336804003 15.8188403912
Fe 25.7975008646 40.2359171064 14.3215088916
Fe 27.2612962348 41.6411383509 15.7419424369
Fe 28.7283555735 40.1326922001 14.3899399408
Fe 30.0840617063 41.6139324055 15.7984751425
Fe 31.5996579552 40.2209102733 14.2942537144
Fe 33.0533684585 41.632765817 15.8317630871
Fe 34.4631335798 40.1274793728 14.3551742076
Fe 35.9020299611 41.6597158916 15.8171328947
Fe 37.2969024709 40.187348965 14.3795470962
Fe 38.7250322072 41.6236087971 15.823035906
Fe 40.1825565441 40.2076428804 14.322878025
Fe 41.6553803699 41.6279618527 15.8240302554
Fe 43.0462661435 40.1923471628 14.3384401085
Fe 44.4860508947 41.6294493241 15.7930412846
Fe 45.9230829886 40.219329387 14.3939776657
Fe 47.3105135675 41.5599798156 15.8211374147
Fe 48.7766756169 40.1764578766 14.3688894794
Fe 50.1677303763 41.607238147 15.7353991999
Fe 51.6292559157 40.1381601141 14.3929521287
Fe 53.1408325721 41.5672556055 15.7892871808
Fe 54.5767922982 40.1953838926 14.3516171561
Fe 55.9239330154 41.5586535821 15.7851999075
Fe 57.3685933907 43.0834312647 14.4001015456
Fe 1.4403956648 44.5174993019 15.7758032435
Fe 2.8362813253 43.002301942 14.3883480445
Fe 4.2653001961 44.5036055934 15.746671126
Fe 5.7830378225 43.0115524753 14.3259399771
Fe 7.157682901 44.4866422882 15.7532537546
Fe 8.5799832395 43.0513492469 14.3616889388
Fe 10.0198040628 44.4839743947 15.7578054759
Fe 11.4498496354 43.0928942061 14.302357883
Fe 12.9313162649 44.5360284715 15.8231489015
Fe 14.4052250271 43.0360382545 14.360758465
Fe 15.8281273702 44.5055111234 15.8118653755
Fe 17.1918924464 43.0532990049 14.3590152409
Fe 18.6616486289 44.4990985365 15.7440599052
Fe 20.0380161232 43.0107235426 14.3992244895
Fe 21.5348122866 44.4937872469 15.8160096604
Fe 22.9662160979 43.0257418403 14.2997580472
Fe 24.3459636386 44.4730899119 15.7670588712
Fe 25.8168828549 43.0760073459 14.3783506184
Fe 27.2249581046 44.4982174463 15.8253208314
Fe 28.7542153596 43.0212404471 14.3754912215
Fe 30.1197409333 44.4651777974 15.8412334023
Fe 31.5872026774 43.0137615898 14.3724215871
Fe 33.0098685454 44.455420667 15.8007486444
Fe 34.4877149951 43.0421377542 14.3967174079
Fe 35.87132916 44.4445115064 15.8411324147
Fe 37.2766394675 43.0761569968 14.3413024954
Fe 38.7414801024 44.4856184581 15.7559653547
Fe 40.1322666263 43.0292884686 14.3775096087
Fe 41.6530471579 44.520086007 15.7489650154
Fe 43.02597132 43.0654069694 14.33442231
Fe 44.5350937099 44.4305670423 15.8089174666
Fe 45.9507946765 43.056378102 14.3537190192
Fe 47.3946239579 44.4752119578 15.8224802889
Fe 48.8114455192 43.1066873408 14.4044836948
Fe 50.2617320208 44.4838398707 15.8307900389
Fe 51.6249090037 43.0822587715 14.3029947934
Fe 53.1274770629 44.5116169158 15.7684909942
Fe 54.5776717137 43.0357262063 14.2935830131
Fe 55.9862414852 44.530730049 15.7561774768
Fe 0.0083268601 45.9344431728 14.4033249079
Fe 1.466219219 47.3738528876 15.7764879181
Fe 2.927274268 45.8754185305 14.362435012
Fe 4.29250177 47.3295914194 15.7638725819
Fe 5.6930512669 45.8630471218 14.3890517346
Fe 7.1557937466 47.3630625405 15.7884831707
Fe 8.6042492526 45.9167617344 14.3749198741
Fe 10.0211830018 47.38015186 15.7996021548
Fe 11.4675851944 45.8793629771 14.3295428477
Fe 12.9300051005 47.4074131843 15.7322166608
Fe 14.3955621233 45.9157282217 14.3391127525
Fe 15.745874542 47.4002172565 15.8004266876
Fe 17.2395095033 45.9235019177 14.389933158
Fe 18.6440471281 47.337093431 15.8168504871
Fe 20.1348522983 45.9625952742 14.3724543482
Fe 21.4902739862 47.4055664673 15.7873169878
Fe 22.9471264595 45.957070348 14.4010856361
Fe 24.4168934244 47.3130966591 15.7466747984
Fe 25.8247232156 45.8726276691 14.3072249459
Fe 27.2864730319 47.3258194577 15.7530218259
Fe 28.7380520581 45.9259763594 14.3838521727
Fe 30.1153076449 47.4114667877 15.8365616082
Fe 31.5976453782 45.9063942338 14.3201332777
Fe 32.968096773 47.3351107853 15.8134239277
Fe 34.3969788036 45.9437757225 14.307494438
Fe 35.8481612025 47.383614748 15.7440528804
Fe 37.3208602376 45.9383961421 14.343971669
Fe 38.7740671531 47.3353669954 15.8260234037
Fe 40.2231239474 45.9108428674 14.4061357676
Fe 41.602675172 47.3750339628 15.8240637228
Fe 43.0757905816 45.8701531421 14.38096615
Fe 44.5018254794 47.36330922 15.8268914237
Fe 45.9178524131 45.9419980051 14.3243574477
Fe 47.3212792324 47.3726925886 15.8351831136
Fe 48.7889973439 45.9366793074 14.30847337
Fe 50.1938169171 47.3591555009 15.8074064557
Fe 51.694697089 45.8669050465 14.2976465996
Fe 53.0441725926 47.3623097801 15.8359933111
Fe 54.551316245 45.977825368 14.3305666869
Fe 55.9922091034 47.403881485 15.7454302933
Fe 57.3514363153 48.7337864022 14.335442051
Fe 1.4843376907 50.187506752 15.7696335353
Fe 2.8424537502 48.8365538876 14.3983509762
Fe 4.3100397284 50.2681052064 15.7930477222
Fe 5.7636885225 48.8038954908 14.321321019
Fe 7.1319571175 50.2325311201 15.7405860962
Fe 8.6448262995 48.7427334638 14.3434952206
Fe 10.096408375 50.2549694126 15.7452179942
Fe 11.520351673 48.774007825 14.3852724802
Fe 12.9093282308 50.2015432832 15.7992951498
Fe 14.3625644331 48.7920305664 14.3052161644
Fe 15.806778614 50.2519409224 15.8333848198
Fe 17.2749350473 48.7596158712 14.3368366699
Fe 18.7100362835 50.1886960238 15.7293456713
Fe 20.090505172 48.8164901606 14.3042366258
Fe 21.5243701657 50.2762875751 15.7721218046
Fe 23.0123085453 48.7782465967 14.3746171151
Fe 24.4339070217 50.1914348554 15.7919049784
Fe 25.8628613351 48.7775406262 14.3585083686
Fe 27.2352419386 50.2820118288 15.727954549
Fe 28.6433952949 48.7836744144 14.3032196462
Fe 30.0859246997 50.2805443974 15.7303217511
Fe 31.6255553828 48.8069883927 14.3429561471
Fe 33.0035886619 50.1980926986 15.7577666431
Fe 34.3961137527 48.8031507573 14.3896071003
Fe 35.8759320698 50.2007282463 15.7622123499
Fe 37.2756577202 48.7648634023 14.3040432366
Fe 38.7819312396 50.2669107709 15.8225971174
Fe 40.2164110326 48.7874317248 14.3799115736
Fe 41.5775206933 50.2008275619 15.7423526687
Fe 43.0992153584 48.7602793456 14.4075240691
Fe 44.5281742364 50.2669615632 15.7657356584
Fe 45.9726462031 48.8380154578 14.3514870823
Fe 47.3222116751 50.2348277708 15.7418169957
Fe 48.8167687798 48.8131288084 14.3461710501
Fe 50.1895606806 50.2766096138 15.8278243505
Fe 51.6059651189 48.7682402229 14.3580377819
Fe 53.0850444454 50.2632111284 15.8253192076
Fe 54.5128424881 48.7767938313 14.3415600572
Fe 55.9641980031 50.2012861686 15.787762474
Fe 0.008714527 51.6636322672 14.3601428532
Fe 1.3872780271 53.07671556 15.7435516509
Fe 2.88245471 51.6169471872 14.3096374903
Fe 4.2511615876 53.0675394057 15.7955753437
Fe 5.685242038 51.6508696395 14.3733749213
Fe 7.1241325303 53.1333836934 15.8049774792
Fe 8.5993872487 51.6424392384 14.3493705242
Fe 10.0599921528 53.1017484604 15.7513256929
Fe 11.5130502513 51.613539431 14.3550867413
Fe 12.9113261722 53.0510005472 15.7351225903
Fe 14.2997514362 51.6593340623 14.3092562536
Fe 15.7825895365 53.1424161039 15.8083771953
Fe 17.2756829416 51.6998647539 14.3068968576
Fe 18.6375701362 53.0664874662 15.7937637125
Fe 20.0778756966 51.6765724228 14.3668050718
Fe 21.5051960849 53.0602185604 15.7855656356
Fe 22.9740106656 51.6850792174 14.389262811
Fe 24.4159370021 53.1022611056 15.815323919
Fe 25.8393243584 51.6146008024 14.3085137315
Fe 27.2484559844 53.0463249729 15.8191212267
Fe 28.755971636 51.6246352144 14.3029757294
Fe 30.1298569075 53.1515195346 15.8410659328
Fe 31.5454513075 51.6124425902 14.3730253029
Fe 33.0164591745 53.1514020154 15.7921845079
Fe 34.4864441949 51.7017935511 14.3794593732
Fe 35.8301431166 53.1344925031 15.8165957419
Fe 37.2914607784 51.7160673182 14.3840120555
Fe 38.7354210606 53.1381220098 15.8286273977
Fe 40.1812592888 51.665415291 14.330163432
Fe 41.6691983913 53.0524877941 15.7504212485
Fe 43.0117559564 51.6793392716 14.3125379025
Fe 44.435301089 53.0608576324 15.7527916283
Fe 45.8885215304 51.6891701527 14.3281730395
Fe 47.3744229883 53.1485806341 15.8364406019
Fe 48.8164751057 51.6726006733 14.3327986529
Fe 50.1689195611 53.1276308753 15.821843538
Fe 51.6276589253 51.6128655151 14.397792762
Fe 53.1449343584 53.1325654668 15.7582345314
Fe 54.5799365629 51.6566973219 14.2932484283
Fe 56.0182875627 53.149850764 15.7352853832
Fe 0.0387780512 54.5150826725 14.4019950713
Fe 1.3863434596 55.9293895133 15.7439921004
Fe 2.9079649062 54.4941159013 14.4029476743
Fe 4.2857230271 55.9928426032 15.7868172773
Fe 5.7878307057 54.4756597302 14.2943471821
Fe 7.1408630389 55.9329956312 15.8195443382
Fe 8.6481820107 54.5228345911 14.3762684167
Fe 10.0071979781 55.9490514053 15.7625903208
Fe 11.4946077635 54.5849768116 14.3281766318
Fe 12.901893422 55.952273538 15.7817004075
Fe 14.3218619413 54.5388318086 14.3174558133
Fe 15.8423223793 56.0063847453 15.7928434723
Fe 17.2199219307 54.5012738832 14.4068702597
Fe 18.7116923219 55.943299775 15.799329196
Fe 20.075420825 54.5154229716 14.3340658015
Fe 21.5548385159 56.0179518158 15.7651838346
Fe 22.9910648479 54.5565528131 14.3251235284
Fe 24.3889256374 55.9570866099 15.7571153061
Fe 25.8113798391 54.561221422 14.2941931425
Fe 27.2575623169 55.9395309646 15.7906359636
Fe 28.6574809426 54.5299319243 14.2947301055
Fe 30.1762404159 55.9735557175 15.8150212493
Fe 31.6123535761 54.5166596482 14.3969840127
Fe 32.9696667932 56.007199297 15.8211510418
Fe 34.4181013691 54.4942316564 14.317905414
Fe 35.8898843619 55.9706154302 15.7439994918
Fe 37.3083596757 54.5018914332 14.3507644263
Fe 38.7621967996 55.9492545165 15.773464764
Fe 40.1608777877 54.4921411155 14.3715051347
Fe 41.5722226898 55.9442191303 15.8185733491
Fe 42.9972030833 54.5034025317 14.3184762696
Fe 44.5059957674 55.9435031499 15.8160448734
Fe 45.9467868123 54.5589142519 14.382536858
Fe 47.3672203387 55.9173414736 15.7632488596
Fe 48.7549865242 54.512377302 14.3277830243
Fe 50.2781839491 55.9866587629 15.8078539636
Fe 51.6025053537 54.5748649401 14.3056376535
Fe 53.1194860381 55.9165632318 15.7462222381
Fe 54.4982934413 54.57174983 14.3785601701
Fe 55.995371918 55.9996078338 15.7716081449
Fe 57.365851525 0.0066412425 17.2513091061
Fe 1.487195119 1.4860975312 18.6757983008
Fe 2.9054109131 57.3977055318 17.2276451431
Fe 4.2961294052 1.4227744134 18.6762985004
Fe 5.7347015568 0.0180139254 17.2599687579
Fe 7.1927921795 1.3899193881 18.6050415568
Fe 8.6509452036 57.3817938762 17.2501449434
Fe 10.0378599283 1.4707532831 18.6636492923
Fe 11.4423240028 0.0268589221 17.195919453
Fe 12.9569057365 1.4548259192 18.6909385045
Fe 14.3053272652 57.3601992955 17.2589586328
Fe 15.8371259244 1.4826982822 18.6769624258
Fe 17.2140577416 0.0408066701 17.204116504
Fe 18.6302830639 1.4012907553 18.6839265694
Fe 20.1390396711 57.3694187815 17.2330572224
Fe 21.5192807575 1.4765999996 18.6033674098
Fe 22.9543641761 0.0196463213 17.1656505114
Fe 24.4276246505 1.4660099458 18.6308275977
Fe 25.8096594205 0.0525591204 17.1818908136
Fe 27.2293997895 1.4360859756 18.7059547911
Fe 28.7303327089 0.0046477004 17.2431061836
Fe 30.1290667654 1.4732336469 18.6811541007
Fe 31.5729648476 57.3724353072 17.1877866197
Fe 33.0421904333 1.4865296014 18.6000336561
Fe 34.3999137985 57.3490818537 17.2348113267
Fe 35.8947475011 1.453074836 18.6672437051
Fe 37.2670802041 0.0396558392 17.186231988
Fe 38.7968698075 1.4251879039 18.6219672638
Fe 40.1274551119 57.3598373259 17.2142611162
Fe 41.593822746 1.4169395591 18.6971075827
Fe 43.0945208602 57.3916788889 17.1860945802
Fe 44.5141894889 1.4475591208 18.6895468758
Fe 45.9658690732 2.19686476e-04 17.195979042
Fe 47.3409564762 1.3776625574 18.6319751089
Fe 48.8363019621 0.0575531718 17.1726716935
Fe 50.2219714895 1.4253791873 18.6282858081
Fe 51.608678833 0.0316435443 17.2166463438
Fe 53.0987456885 1.4161689037 18.608797919
Fe 54.5680766047 57.3701043736 17.2566486157
Fe 55.9590821556 1.4158522606 18.6282360893
Fe 0.0207194087 2.8698777266 17.205178504
Fe 1.4458333153 4.3127853736 18.6053565448
Fe 2.8979530039 2.8889742625 17.2070397975
Fe 4.3355977483 4.2742352196 18.6976617796
Fe 5.7656440836 2.8184390055 17.2097773461
Fe 7.230542312 4.3336713483 18.6842174871
Fe 8.628844338 2.9045711248 17.1815366178
Fe 10.0644446039 4.2755440046 18.7104395932
Fe 11.5092252622 2.927636075 17.1969510898
Fe 12.9009835788 4.2813419098 18.6103300871
Fe 14.3433026608 2.8273433625 17.2727571724
Fe 15.8186106883 4.3553078189 18.6121328065
Fe 17.1819260597 2.8319673364 17.1874973664
Fe 18.6797196184 4.2661996651 18.6473370617
Fe 20.1358987421 2.8925802027 17.2322845783
Fe 21.5187125001 4.3121966354 18.6076310192
Fe 22.9260165968 2.8184753946 17.1802799076
Fe 24.3730716789 4.2841067287 18.6272447192
Fe 25.8329830473 2.9272073751 17.221578189
Fe 27.2107793533 4.3120280057 18.6714926467
Fe 28.7507800344 2.8311580897 17.2523053324
Fe 30.18059435 4.3516759443 18.6841322127
Fe 31.625682152 2.8373768068 17.2116256061
Fe 33.0463468822 4.2877039815 18.6046517606
Fe 34.3929480346 2.8778330455 17.1974545063
Fe 35.9023392228 4.2960273312 18.6774815015
Fe 37.3663107041 2.8435836532 17.2444118636
Fe 38.7736578122 4.2483069488 18.6969648667
Fe 40.1832706741 2.9036879313 17.2606856893
Fe 41.6075343811 4.2782733074 18.7080171912
Fe 42.9977106528 2.9041953366 17.1762854831
Fe 44.4306302701 4.2995048826 18.6413599012
Fe 45.9102478932 2.9275989502 17.2184051878
Fe 47.3326458632 4.2978026282 18.6507635825
Fe 48.8317326784 2.8358566985 17.1956904933
Fe 50.264431968 4.3569260235 18.7063042395
Fe 51.68996651 2.83851905 17.1814709306
Fe 53.0836444359 4.3384132039 18.6085880596
Fe 54.5461569807 2.8941637315 17.2377700975
Fe 55.9846329994 4.3157897795 18.6645588658
Fe 0.0245239309 5.6899521999 17.2272597241
Fe 1.422348768 7.1250724691 18.6262533661
Fe 2.8412808775 5.7614839237 17.2099885495
Fe 4.2670937578 7.1989870266 18.6203951724
Fe 5.6839020559 5.7936577628 17.1950268553
Fe 7.1230176794 7.1257298492 18.6735499094
Fe 8.5755601975 5.7230015861 17.2083220401
Fe 10.0877147739 7.1240488382 18.7086575237
Fe 11.5165837118 5.7262138292 17.1983002598
Fe 12.9513704893 7.2241162048 18.6505337293
Fe 14.3866811263 5.7717403643 17.1815991327
Fe 15.8033000045 7.1902881204 18.683785842
Fe 17.2306164918 5.7095470328 17.2671228981
Fe 18.6179500283 7.1509131153 18.6213828066
Fe 20.0839354347 5.7724522558 17.254109535
Fe 21.4827079428 7.2069222 18.6272789829
Fe 22.9952939839 5.7216739741 17.2448903155
Fe 24.4070184392 7.1453436967 18.6367057856
Fe 25.7848447913 5.7204909691 17.1677245814
Fe 27.2921633533 7.1465858577 18.6649614376
Fe 28.7305114432 5.75424948 17.2030123289
Fe 30.1633252026 7.1631721237 18.6728209156
Fe 31.5484842299 5.7921274252 17.1689599638
Fe 33.0317385042 7.2325286661 18.6370003833
Fe 34.4947298987 5.7524222324 17.198766475
Fe 35.8839545703 7.1809069697 18.6703090435
Fe 37.2658847334 5.7662458727 17.2492331806
Fe 38.7440605935 7.2025818681 18.6022312843
Fe 40.1980127291 5.7604667812 17.2636678355
Fe 41.6026361531 7.1743280499 18.6556521889
Fe 42.9974583932 5.7616184503 17.2487436773
Fe 44.449850713 7.1935209962 18.622126262
Fe 45.9609557716 5.7430978241 17.201773555
Fe 47.3428480005 7.1453640213 18.653792064
Fe 48.7524493141 5.7291319617 17.2450029241
Fe 50.1956852949 7.1756957139 18.7060523174
Fe 51.6508197332 5.7520817073 17.254456303
Fe 53.0505863913 7.1620856832 18.6778014848
Fe 54.491796089 5.737417702 17.2756670027
Fe 55.9218071504 7.1939422051 18.7095886804
Fe 0.0331951619 8.5586333711 17.2760144553
Fe 1.487067239 10.0311617481 18.7069447523
Fe 2.8304328742 8.6641908165 17.2073551433
Fe 4.2787621299 10.0122212075 18.6362702837
Fe 5.6974643053 8.5879984055 17.2122779963
Fe 7.1760034909 10.0084054172 18.6872196295
Fe 8.6642283812 8.5789333351 17.2224883612
Fe 10.075730476 9.9993205889 18.6367022772
Fe 11.4652047801 8.6612387779 17.1938217231
Fe 12.8934798877 10.0671742091 18.6747095453
Fe 14.403371521 8.5713683649 17.2465312869
Fe 15.7772548161 10.0089166278 18.6634169565
Fe 17.2137879505 8.6100530138 17.251669346
Fe 18.6160384797 10.0959217241 18.6038383426
Fe 20.0532403814 8.6214957941 17.2142644294
Fe 21.5533733368 10.0582861216 18.6151166487
Fe 22.9785171509 8.6149442746 17.2616848079
Fe 24.4431013669 10.0713222353 18.6302269104
Fe 25.8253739872 8.5925256547 17.2524695862
Fe 27.2330917624 10.069729346 18.6739589664
Fe 28.7105142919 8.6151614107 17.2082398443
Fe 30.1394763619 10.078517301 18.7082818661
Fe 31.6257234176 8.6178591448 17.267843293
Fe 33.0037977222 10.0515360915 18.6531030709
Fe 34.4083337078 8.6513333296 17.2214241474
Fe 35.9055059786 10.0530281702 18.6053024171
Fe 37.2605481302 8.6580678694 17.2271581858
Fe 38.7949963861 10.0285792885 18.6450584142
Fe 40.2040876425 8.5753564141 17.2507380101
Fe 41.647160281 10.102480599 18.6445435613
Fe 43.0868344097 8.5949877338 17.1709908213
Fe 44.4872397253 10.029370485 18.6745950334
Fe 45.8692757618 8.5691675586 17.1778846006
Fe 47.3110641315 10.046490279 18.6286938652
Fe 48.7353598322 8.590440324 17.2343400955
Fe 50.2666214364 10.0560092972 18.7112687172
Fe 51.6922506715 8.5590382263 17.2768701348
Fe 53.0387944576 10.0999700365 18.6610183115
Fe 54.5795105994 8.6073901108 17.2115220542
Fe 55.9423902655 10.0928930687 18.6253374829
Fe 0.0555619884 11.425066529 17.2071220645
Fe 1.4065034131 12.9068554562 18.6137304807
Fe 2.8534641132 11.4632169569 17.2730904317
Fe 4.3056000617 12.9061391489 18.6034118859
Fe 5.7120833677 11.51245844 17.1859512002
Fe 7.19844107 12.8886405856 18.6565940151
Fe 8.6086420334 11.519781566 17.2057674926
Fe 10.049963953 12.9157198244 18.6092979478
Fe 11.4272412888 11.4891193085 17.2432590562
Fe 12.870598404 12.9448439941 18.6474164745
Fe 14.3924450787 11.5027437948 17.2055048296
Fe 15.7749492575 12.9578732703 18.687139298
Fe 17.2302926792 11.5142450994 17.2341259269
Fe 18.7107094723 12.8907377261 18.705147316
Fe 20.1276413709 11.4975373819 17.2090521925
Fe 21.5205658722 12.9028369593 18.6010132162
Fe 22.9496265257 11.5356981948 17.1868208189
Fe 24.4423127523 12.8853218122 18.6362803573
Fe 25.864419886 11.5191066128 17.1974306155
Fe 27.2228516419 12.933050571 18.6739045473
Fe 28.7123952452 11.5361402736 17.1863780316
Fe 30.1849915154 12.9198395632 18.6327427203
Fe 31.5540115651 11.4753015954 17.2657364459
Fe 32.9774364414 12.933760769 18.6489447373
Fe 34.4704837628 11.4910370796 17.2204893957
Fe 35.9192222049 12.938501485 18.6802272214
Fe 37.3600573243 11.44440963 17.2071032348
Fe 38.7742506514 12.8913607411 18.6310669057
Fe 40.2131112392 11.5158030126 17.1944518213
Fe 41.6250439085 12.8604487599 18.6446658033
Fe 43.089955616 11.4481697791 17.2516471992
Fe 44.4958977348 12.9445265404 18.7124720081
Fe 45.8803739892 11.4224299142 17.270529847
Fe 47.4019761885 12.9128045159 18.6582330992
Fe 48.7550438085 11.5137218679 17.1742627243
Fe 50.2542334797 12.960653676 18.6190954175
Fe 51.6582799109 11.4482812989 17.2573743593
Fe 53.1225275945 12.8720931755 18.614320909
Fe 54.48225116 11.4692788353 17.2525
Fe 56.0130035451 12.8593455745 18.7085879271
Fe 57.3447405827 14.2980131712 17.2703288537
Fe 1.3796604603 15.7485799049 18.6720772306
Fe 2.8430278535 14.3020924065 17.2717276967
Fe 4.3588869101 15.8322282475 18.7127153735
Fe 5.6858628254 14.333476823 17.1697472233
Fe 7.1617196068 15.7477084259 18.6861301843
Fe 8.604364493 14.3086037496 17.166139378
Fe 10.0449319439 15.7893721778 18.6178734601
Fe 11.4326127234 14.3177339684 17.1767836096
Fe 12.8930901096 15.7326195808 18.6061460205
Fe 14.3408430823 14.3280615183 17.2501878851
Fe 15.8277093734 15.7728556414 18.5983637062
Fe 17.2643084052 14.3838506272 17.1750879499
Fe 18.6222550858 15.744294428 18.7118391279
Fe 20.0760036156 14.3915127664 17.1782579215
Fe 21.5472199105 15.8393375274 18.6739934283
Fe 22.9318064875 14.3182989063 17.2582949713
Fe 24.4425662621 15.8367589576 18.6237198377
Fe 25.8070882113 14.3731197236 17.2257647828
Fe 27.2597715041 15.7894867294 18.6794586343
Fe 28.730095975 14.3628616013 17.2518401508
Fe 30.1230812609 15.8344373394 18.6570096058
Fe 31.5212112118 14.3165419421 17.217021941
Fe 32.9688395492 15.7523419373 18.6034147185
Fe 34.3947153224 14.3607324298 17.1698702218
Fe 35.9217136551 15.7518065168 18.6847793944
Fe 37.2907547937 14.3346471214 17.2740968269
Fe 38.7778349103 15.8189681939 18.6866580936
Fe 40.1404219269 14.3893173801 17.1971004188
Fe 41.5980797209 15.7543303374 18.6317519092
Fe 43.0304466429 14.3437873694 17.2463442954
Fe 44.4580183294 15.7383416838 18.6098870397
Fe 45.8947833556 14.3424758152 17.2370715232
Fe 47.3140826308 15.7325071876 18.6151316672
Fe 48.8126631711 14.3983753303 17.2514034898
Fe 50.2386720206 15.8233579447 18.6362470629
Fe 51.667003163 14.3134168515 17.2425325678
Fe 53.132167534 15.8378717604 18.7055788758
Fe 54.583731022 14.3944496486 17.1822110957
Fe 55.9952143657 15.8000554269 18.6549732848
Fe 0.0157244575 17.2757304231 17.2142916045
Fe 1.3777691057 18.6112776163 18.6679377872
Fe 2.8995282289 17.2591169407 17.1724856805
Fe 4.2508612117 18.6891105251 18.6223994287
Fe 5.7048471306 17.2665872969 17.2438744418
Fe 7.1491635206 18.6338251098 18.6920073633
Fe 8.5829162163 17.1984021839 17.1717138619
Fe 10.0770346635 18.6151817682 18.6879745894
Fe 11.4546510634 17.2711916397 17.195025469
Fe 12.9208257491 18.638759195 18.6822528452
Fe 14.3784817137 17.2614933992 17.205280259
Fe 15.7527726166 18.6686049285 18.6301566173
Fe 17.2651175627 17.2477230322 17.2746897459
Fe 18.7040234751 18.627709917 18.6737024014
Fe 20.0660822759 17.2094130309 17.2489685452
Fe 21.5016994608 18.6659788599 18.6445923734
Fe 22.9093670882 17.2423169794 17.2258133895
Fe 24.4219020702 18.6576869259 18.6328898167
Fe 25.8699831339 17.1777166641 17.2052246641
Fe 27.2892952276 18.706082898 18.6297356989
Fe 28.6473954263 17.2581512299 17.255430315
Fe 30.1522962566 18.6976493673 18.6161432911
Fe 31.6136274404 17.256128685 17.2320289461
Fe 33.0284374259 18.6662025228 18.7069644786
Fe 34.4833080846 17.2028659356 17.274315429
Fe 35.8733282055 18.6704733715 18.6630145279
Fe 37.3091781581 17.2159077896 17.2769239778
Fe 38.7738078006 18.68848766 18.6357976399
Fe 40.1950618038 17.1649287297 17.2617410836
Fe 41.6109564279 18.6914650448 18.6819147645
Fe 43.0972933097 17.2302514837 17.2628652434
Fe 44.4434270086 18.6353806828 18.6600536401
Fe 45.8797064147 17.2319988805 17.2730353202
Fe 47.3296484319 18.6556647404 18.5974753687
Fe 48.7501776737 17.2583320887 17.225436163
Fe 50.2355319001 18.6834343545 18.6359944248
Fe 51.6335506081 17.2170416592 17.2002621174
Fe 53.1435275546 18.6230639891 18.6109325863
Fe 54.5009385052 17.2163146994 17.1739308123
Fe 55.9358241824 18.6770701144 18.6944008847
Fe 57.3773580009 20.1195664116 17.2764100933
Fe 1.4284842308 21.4824363072 18.6884820449
Fe 2.874231867 20.0448238806 17.2624346803
Fe 4.2835696762 21.511950929 18.6490375411
Fe 5.7598428633 20.1051737572 17.2763420629
Fe 7.2052214898 21.5266022947 18.6923962674
Fe 8.5609104755 20.0761041991 17.2056429279
Fe 9.9922671645 21.4940420003 18.7079731262
Fe 11.4814705462 20.1053276309 17.2325166813
Fe 12.8832322834 21.5435801977 18.6077679176
Fe 14.3108201871 20.12666623 17.2093892018
Fe 15.7878204684 21.5521991577 18.641026706
Fe 17.20493876 20.1424597132 17.167012323
Fe 18.6772044434 21.4808737472 18.6043894624
Fe 20.1378055215 20.0814709615 17.2085410569
Fe 21.4793709306 21.5767115588 18.6547412868
Fe 23.0073150548 20.0601065294 17.2480194432
Fe 24.3723890014 21.4920098247 18.6840983654
Fe 25.8539567788 20.1332618397 17.1702695735
Fe 27.2336624045 21.5608119706 18.7094021691
Fe 28.6525636329 20.1212024457 17.1754758843
Fe 30.1131303025 21.4976079548 18.6974843078
Fe 31.5663359434 20.1377785739 17.2560836366
Fe 32.9710782592 21.565924118 18.6941520794
Fe 34.4567582981 20.0499911816 17.2231468801
Fe 35.8710810696 21.478395223 18.6085025889
Fe 37.3508852612 20.1206780007 17.2692869842
Fe 38.7023848757 21.4728579919 18.6624969833
Fe 40.1711577532 20.1056890395 17.2304189523
Fe 41.6352390969 21.5271693412 18.6985442875
Fe 42.9995869446 20.1423065594 17.2162622787
Fe 44.4613102878 21.5255480714 18.6236930762
Fe 45.8990260919 20.1174178989 17.1710949176
Fe 47.3758177445 21.4720564443 18.628291947
Fe 48.7650280669 20.1413938005 17.2400371344
Fe 50.2772102257 21.5005016465 18.6576683807
Fe 51.7114126527 20.0469670841 17.2228688977
Fe 53.1013098324 21.4716468968 18.6859500715
Fe 54.5598543966 20.1257256849 17.2377266635
Fe 55.9746114287 21.5501573291 18.6073832469
Fe 0.0229625507 22.9068684487 17.1683332042
Fe 1.456447212 24.4499494207 18.6644647488
Fe 2.8174251083 22.9451738048 17.1817231008
Fe 4.3307472924 24.440480901 18.6231928239
Fe 5.6858144121 22.9406893251 17.190456205
Fe 7.2220880096 24.3825131412 18.6487981825
Fe 8.6511657731 22.9329918716 17.2725685961
Fe 10.0469249572 24.4048213078 18.6462507439
Fe 11.4738213425 22.9811428279 17.2553926459
Fe 12.8935977008 24.414100074 18.6635963297
Fe 14.3362857174 22.9722326904 17.2411390121
Fe 15.8088558433 24.4387889347 18.6742723784
Fe 17.2076068785 22.9179921609 17.1655628865
Fe 18.6115323703 24.3801496259 18.6762500177
Fe 20.0932018863 22.9545125732 17.1651004652
Fe 21.5134306578 24.4308224891 18.6817373385
Fe 22.9285758815 22.9924650936 17.1733997884
Fe 24.4071191801 24.340985959 18.6895111908
Fe 25.793730847 22.9287786871 17.2536538024
Fe 27.2871600685 24.4217482274 18.6673868952
Fe 28.7134796138 22.9863415089 17.2213348477
Fe 30.1796493978 24.3860041636 18.639817455
Fe 31.5814727138 22.9563689066 17.163824406
Fe 32.9524388025 24.4382584946 18.6670967452
Fe 34.4377944731 23.0161231446 17.1704219098
Fe 35.8628068272 24.3421114058 18.6708945408
Fe 37.3644632199 23.010860123 17.1968792706
Fe 38.7089242841 24.424291065 18.6991206854
Fe 40.151487421 22.9931002908 17.1890517639
Fe 41.6108711116 24.3776714105 18.6072098717
Fe 43.0020970232 22.9501516934 17.23416551
Fe 44.433998147 24.3563175947 18.6382887602
Fe 45.8764705055 22.9151884982 17.1781760781
Fe 47.3531617326 24.39454897 18.6425882917
Fe 48.7326500941 23.0027541545 17.2515011176
Fe 50.1991431427 24.3820649782 18.7084834858
Fe 51.6176640081 22.9952994622 17.2658118319
Fe 53.0488400748 24.3688554572 18.6965984896
Fe 54.4805207197 22.9498423996 17.2375963597
Fe 55.965156645 24.3663886174 18.674281457
Fe 0.0302163438 25.8396808839 17.2197704696
Fe 1.4230449899 27.2904355336 18.7055401446
Fe 2.9138143082 25.8421302331 17.2697897389
Fe 4.2814987868 27.3161501886 18.6691484776
Fe 5.7389142518 25.8255261965 17.1799062119
Fe 7.153794762 27.2842641301 18.6592660309
Fe 8.6131231892 25.8265871267 17.1715597049
Fe 10.0919994731 27.3062884692 18.6710291184
Fe 11.4559649315 25.878502172 17.2166415923
Fe 12.907615033 27.3142551875 18.629336747
Fe 14.3257516422 25.8222697509 17.1691670973
Fe 15.7679840418 27.2315831262 18.6399471168
Fe 17.2717739304 25.7825361885 17.2665394043
Fe 18.6264380159 27.3204098395 18.6984295793
Fe 20.0794398369 25.8875680862 17.2392790822
Fe 21.5192297562 27.2240156346 18.6001649817
Fe 22.9295500257 25.857788718 17.2682366076
Fe 24.414815058 27.2239922758 18.6386801963
Fe 25.8823063465 25.8401291032 17.276934723
Fe 27.2479859909 27.2739696771 18.6748246159
Fe 28.6579302422 25.7897789384 17.2119675579
Fe 30.1100750098 27.2939157023 18.710139997
Fe 31.5848763465 25.8438551364 17.2193374725
Fe 33.023338588 27.2756454275 18.6162192267
Fe 34.4395150715 25.8835132755 17.2352462861
Fe 35.8314084368 27.2553698931 18.6247829538
Fe 37.3299569579 25.8288772279 17.2110848042
Fe 38.7994790726 27.3104721633 18.709222803
Fe 40.2371203226 25.8614562502 17.1852169186
Fe 41.6222631495 27.2349901336 18.599246394
Fe 43.006674895 25.7948673099 17.1722830176
Fe 44.48007778 27.2384672229 18.6848940623
Fe 45.8720446969 25.8721911545 17.2153394499
Fe 47.3616386595 27.2489984892 18.6689279752
Fe 48.8225524544 25.7990632925 17.2655610209
Fe 50.2615062099 27.2507485666 18.6789033449
Fe 51.6898021215 25.8772332898 17.1934928427
Fe 53.0811466067 27.2807531778 18.6229633365
Fe 54.5368154014 25.7821857811 17.2420958994
Fe 55.9553743916 27.3070427453 18.670292644
Fe 0.0080360523 28.6586625816 17.2212249461
Fe 1.3994510279 30.1867291341 18.6490986381
Fe 2.8797775694 28.6507963664 17.2385026293
Fe 4.3323453304 30.0930170661 18.6265162286
Fe 5.72704487 28.6503935992 17.1709747913
Fe 7.1466881859 30.1453749962 18.6316173171
Fe 8.5553085099 28.6894733513 17.1923170748
Fe 10.0296443393 30.167370517 18.6248432883
Fe 11.5219358981 28.7386624524 17.2183222132
Fe 12.8751021283 30.1600310533 18.6209692006
Fe 14.3721025849 28.7053638049 17.2425381131
Fe 15.7646805861 30.168932485 18.598573548
Fe 17.1891088203 28.7556963559 17.1810933746
Fe 18.6599800803 30.0894236357 18.6739184259
Fe 20.1013891116 28.7454642447 17.258978871
Fe 21.5164984047 30.1048079702 18.6058049138
Fe 22.9853147359 28.6830278493 17.1644888933
Fe 24.3762619798 30.1688529475 18.6370306048
Fe 25.8259899948 28.6762891394 17.1819251452
Fe 27.2769196705 30.1569943504 18.6531632904
Fe 28.6708224882 28.7487497961 17.2491999234
Fe 30.1752317511 30.1172675625 18.6010162476
Fe 31.6157607647 28.6791920476 17.2044682964
Fe 33.0619531196 30.0967267964 18.6735677407
Fe 34.4331104297 28.7203493416 17.179181853
Fe 35.8305558521 30.0898758587 18.7035979208
Fe 37.3536503767 28.7428473942 17.2728210003
Fe 38.7929605481 30.1100649542 18.6427939923
Fe 40.1553322703 28.6950359777 17.275017745
Fe 41.6251515456 30.0847525074 18.7010720847
Fe 43.0210681505 28.6832990407 17.1718194077
Fe 44.5344409578 30.1149250093 18.6321043535
Fe 45.9034659631 28.6902076502 17.1649296352
Fe 47.3465504869 30.1791868384 18.6892467355
Fe 48.847863581 28.6459653757 17.165407475
Fe 50.2218339348 30.1059016118 18.6956343933
Fe 51.6327658482 28.7250844214 17.1824822305
Fe 53.0946052199 30.1915937577 18.6288378727
Fe 54.4963284351 28.7510663255 17.1813982239
Fe 55.9591620828 30.1757639303 18.6476935727
Fe 0.0151568525 31.5149774444 17.1692516924
Fe 1.3849666028 33.0306530171 18.6550378655
Fe 2.9220460714 31.5815608221 17.18610922
Fe 4.2952246764 33.0456439427 18.6405242591
Fe 5.7688851546 31.5748446699 17.1850816781
Fe 7.1794078381 32.9765479252 18.6952039156
Fe 8.6630092034 31.545912195 17.2529713968
Fe 9.9902985148 33.0451126655 18.6440211886
Fe 11.4374656538 31.5859637973 17.1889379508
Fe 12.9702333482 32.9635451307 18.6319228841
Fe 14.3143532567 31.58687887 17.1657989537
Fe 15.7975646021 32.9644350463 18.7066363042
Fe 17.247666191 31.6174087257 17.1655505358
Fe 18.6795953005 33.0268386017 18.6582932922
Fe 20.1276847474 31.5201134164 17.1682133811
Fe 21.5673142706 32.9622918069 18.6951042808
Fe 22.9917529575 31.5461807004 17.2467692063
Fe 24.3877470391 32.972606975 18.6959322163
Fe 25.8677879196 31.5332725677 17.2618572226
Fe 27.2172671922 33.0038322241 18.6962681569
Fe 28.7082962519 31.609556367 17.2457049068
Fe 30.1636370975 33.0432404513 18.6240767808
Fe 31.6025041609 31.5237556905 17.2173586153
Fe 33.0524430372 32.9529214317 18.6467257771
Fe 34.4918879167 31.5841573734 17.2161250277
Fe 35.837097802 32.9567210125 18.6066946499
Fe 37.2869053444 31.5511808351 17.1803379004
Fe 38.6990992657 32.9762317755 18.6323666152
Fe 40.2108687202 31.5612066539 17.2691491454
Fe 41.6625450688 33.056857189 18.6080197487
Fe 43.0614724831 31.6047430057 17.2418977113
Fe 44.5425439261 33.0326965083 18.6015827499
Fe 45.9082209102 31.5594405999 17.2628526564
Fe 47.3235944151 33.0468433017 18.6227074271
Fe 48.7695576653 31.5615957566 17.2169583783
Fe 50.2608815894 32.9518426798 18.7062088624
Fe 51.6639814082 31.603562329 17.1660066022
Fe 53.0895136108 33.0004756384 18.6847579344
Fe 54.5613433733 31.5418167036 17.1881320158
Fe 55.9719293838 32.9773397927 18.6435620688
Fe 0.027179036 34.4221955466 17.1648810616
Fe 1.4487668553 35.8977432206 18.6261311359
Fe 2.9195113319 34.4447351181 17.1897797475
Fe 4.3120474771 35.9112436191 18.5997422669
Fe 5.7147696937 34.4286178188 17.1907891482
Fe 7.1281444917 35.8393550242 18.6962121734
Fe 8.5989193753 34.4730828482 17.2247517546
Fe 10.0391085407 35.8911524315 18.6744641103
Fe 11.4782616238 34.3841680048 17.2355871587
Fe 12.9382963734 35.9299951428 18.6581114316
Fe 14.3531041389 34.3959133376 17.26299764
Fe 15.7742580705 35.8754720768 18.6240906701
Fe 17.2551585714 34.408805406 17.1836562175
Fe 18.6243572128 35.8174859911 18.6381836862
Fe 20.1143473826 34.4501094358 17.243403854
Fe 21.5188198993 35.8939042203 18.6037094477
Fe 22.930071685 34.4705961464 17.1656102581
Fe 24.3622866149 35.8818251129 18.6683346891
Fe 25.8321326764 34.4663954241 17.2114614305
Fe 27.3122267664 35.9160173254 18.61198814
Fe 28.6652096082 34.489842187 17.2311213179
Fe 30.149328491 35.8217237238 18.6761478804
Fe 31.6185540483 34.4684884621 17.1828829767
Fe 32.9883184288 35.881682835 18.6523674536
Fe 34.3847592783 34.3864795776 17.2483243332
Fe 35.8661375522 35.8742112912 18.6910276358
Fe 37.3425282281 34.4093278171 17.1880965852
Fe 38.7660999508 35.8303022905 18.6910614338
Fe 40.1558674871 34.4332442405 17.1738797289
Fe 41.6368788822 35.8258949546 18.669273664
Fe 43.0775739185 34.3933822267 17.2043218942
Fe 44.4745830598 35.9269714636 18.67987566
Fe 45.8858168566 34.4828567109 17.1650517751
Fe 47.3105827693 35.9209551057 18.6407257637
Fe 48.7552981141 34.4652981474 17.2506029994
Fe 50.171087237 35.8439099727 18.6132031546
Fe 51.6039851179 34.3830927197 17.2156382137
Fe 53.076398195 35.8406747968 18.6195495659
Fe 54.5277623668 34.4921350034 17.2384868362
Fe 55.9301731786 35.8525691621 18.6697599499
Fe 57.3432554455 37.2670902636 17.2141900024
Fe 1.4032893626 38.7285023003 18.6734060706
Fe 2.8968629872 37.3355860963 17.2768524737
Fe 4.2916113937 38.7707140489 18.6387536038
Fe 5.709775528 37.2742051911 17.2614737675
Fe 7.1856634603 38.7460382425 18.6648438979
Fe 8.5586295932 37.3649582137 17.1860298162
Fe 10.0088129886 38.7553875854 18.6895125657
Fe 11.499571653 37.3675331194 17.2289220074
Fe 12.9268529319 38.7793314251 18.6904326621
Fe 14.2940821218 37.3526666097 17.1976564608
Fe 15.779857127 38.7202443289 18.699756242
Fe 17.2449474699 37.2647562599 17.2326314788
Fe 18.614069447 38.7559414449 18.6577165688
Fe 20.1379215053 37.3162507305 17.1679034652
Fe 21.5268490732 38.7757833978 18.6741827812
Fe 22.9250184171 37.2606813499 17.1664820211
Fe 24.3600463801 38.772115655 18.6783895623
Fe 25.8808335995 37.2612877915 17.2376756842
Fe 27.2928481384 38.7837002367 18.5998214835
Fe 28.6914980318 37.2563127944 17.1775832429
Fe 30.0811226762 38.7248476084 18.6625030451
Fe 31.5256015568 37.3212658777 17.222153575
Fe 33.0577645897 38.7676495845 18.5974425407
Fe 34.4112125814 37.3010031229 17.2555953689
Fe 35.8613500074 38.782295697 18.6514232566
Fe 37.3222426915 37.2987909806 17.2180278161
Fe 38.7896951532 38.7443977569 18.6028714246
Fe 40.1503555317 37.3604891907 17.2341864909
Fe 41.6459373083 38.7936250557 18.6861116858
Fe 43.0937778712 37.31153337 17.2334614173
Fe 44.5109343238 38.7220077224 18.6099816109
Fe 45.9427288777 37.3652792681 17.2139602535
Fe 47.3363364495 38.7325892638 18.7032170443
Fe 48.7424681929 37.3498958051 17.1985875263
Fe 50.2588014718 38.7586574192 18.6079118544
Fe 51.6511945993 37.3246170166 17.183624492
Fe 53.066810023 38.7607484521 18.6064721349
Fe 54.571328008 37.3603849978 17.2117391066
Fe 55.9890226774 38.7320724873 18.6637030372
Fe 57.3926170537 40.1933773158 17.2402727152
Fe 1.3783074717 41.6219531604 18.6248130216
Fe 2.8961085294 40.1298731075 17.262014097
Fe 4.3006301501 41.6495538116 18.6565592859
Fe 5.7661180702 40.1703153557 17.2236913588
Fe 7.1905463187 41.655308162 18.6358585346
Fe 8.6172093072 40.16753321 17.243570493
Fe 10.0447525169 41.5601067259 18.6761165098
Fe 11.4681737549 40.1568926828 17.2364684002
Fe 12.9343402937 41.636314084 18.7035040708
Fe 14.3895470291 40.1355613614 17.2147748563
Fe 15.7769240164 41.5860584687 18.6730482647
Fe 17.2104267084 40.2298613908 17.2028424596
Fe 18.5991557327 41.6439982846 18.6989150858
Fe 20.1245863422 40.1352588894 17.2589974673
Fe 21.565322807 41.6010980935 18.6756434947
Fe 22.9358699134 40.2313488403 17.2372787798
Fe 24.3746320757 41.6524860458 18.6237418901
Fe 25.8336590678 40.2274809606 17.2063258256
Fe 27.209161711 41.6668161664 18.703939937
Fe 28.711233956 40.2187937893 17.2580476233
Fe 30.1911831299 41.5943154622 18.6539395091
Fe 31.5471835381 40.1541243618 17.2317570393
Fe 32.9829910407 41.5652779835 18.6917379228
Fe 34.4299225023 40.1432065949 17.2707640879
Fe 35.8606103288 41.6678576057 18.6196729379
Fe 37.2638606885 40.2351768963 17.1848463055
Fe 38.7105088227 41.5625787996 18.6303696731
Fe 40.1641503513 40.2290440704 17.1704444904
Fe 41.6072897261 41.6508239243 18.6469742319
Fe 43.0182747675 40.1981587083 17.2137373367
Fe 44.5320869531 41.5777995394 18.691740427
Fe 45.9538340834 40.2350431698 17.2331668239
Fe 47.3161211853 41.6645133483 18.6254915086
Fe 48.8338265442 40.2003818747 17.1797643219
Fe 50.2183127297 41.6467499719 18.6433211797
Fe 51.6801312118 40.2106055053 17.2290936302
Fe 53.0841961575 41.6722902352 18.607642215
Fe 54.586676015 40.125102947 17.2585355145
Fe 55.9481565101 41.6718190068 18.6602369069
Fe 0.0525275437 43.0220051233 17.2132128919
Fe 1.4504514419 44.5073215967 18.6908043577
Fe 2.8136309521 43.0320856079 17.2220513095
Fe 4.3237879891 44.4816563492 18.6196525868
Fe 5.7542602641 43.0826906725 17.2325989368
Fe 7.2231103764 44.463569889 18.6318992369
Fe 8.6627114998 43.0987119267 17.2337264865
Fe 10.0867794175 44.4862946298 18.6637291318
Fe 11.4961587441 43.0244371863 17.2241050708
Fe 12.8867950567 44.4302387257 18.6676498599
Fe 14.3434502238 43.0114129588 17.2072642443
Fe 15.8058647375 44.5027107093 18.6008143692
Fe 17.2693618384 43.0407708831 17.2414942064
Fe 18.6958958973 44.5079957366 18.6586640187
Fe 20.0742573155 43.0059851801 17.1697781686
Fe 21.4791622613 44.4932273714 18.6437523058
Fe 22.9961250332 43.0415190864 17.2619445707
Fe 24.4149917283 44.5025423838 18.647962113
Fe 25.8078842002 43.0949568536 17.1712075232
Fe 27.2832098962 44.4802647294 18.7029300505
Fe 28.7230275754 42.9998019001 17.2063982546
Fe 30.1406028546 44.4582259142 18.6293416755
Fe 31.5801347103 43.0256427773 17.1909089136
Fe 32.9950830109 44.5323470812 18.6897618569
Fe 34.4243003205 43.1016923173 17.2304157657
Fe 35.855721949 44.4845054658 18.7112683276
Fe 37.3206340816 43.0909444796 17.2104668694
Fe 38.7903876683 44.4524375495 18.6287064447
Fe 40.1356216954 43.007905938 17.2195690661
Fe 41.6253928596 44.4883368371 18.6025268717
Fe 43.0763829915 43.0195418037 17.2724948714
Fe 44.4640300043 44.4709078132 18.6035844392
Fe 45.9043485125 43.1040408013 17.2602441545
Fe 47.3976789382 44.4998511413 18.6878293299
Fe 48.8187999356 42.992680644 17.1904719605
Fe 50.2015577472 44.5368549431 18.6389323409
Fe 51.6583124368 43.0639064657 17.2445467052
Fe 53.0775241034 44.5183817373 18.6003444529
Fe 54.4969064951 43.0882131904 17.1702637517
Fe 55.9218645341 44.4501499906 18.6798365115
Fe 57.3876697106 45.9128092709 17.1645447077
Fe 1.3956675155 47.4002949328 18.6563531948
Fe 2.8433430945 45.8904061996 17.2670775789
Fe 4.3555306411 47.3643551864 18.6298980095
Fe 5.7595693964 45.8739884924 17.1932649787
Fe 7.1484635537 47.3824035898 18.618011213
Fe 8.6585911853 45.9246932532 17.2261290027
Fe 10.0830955288 47.3927707678 18.6513507848
Fe 11.4609362165 45.9126204277 17.2559075454
Fe 12.9268250632 47.3711940512 18.6008563548
Fe 14.3862574493 45.9249993953 17.26133738
Fe 15.7689184203 47.3386644174 18.6195156777
Fe 17.200851046 45.9637917081 17.2193830022
Fe 18.706801062 47.3542826108 18.6124624936
Fe 20.1466921125 45.9379966027 17.2396227593
Fe 21.4820589205 47.3564002081 18.6924438118
Fe 22.9935817421 45.948301581 17.1650559198
Fe 24.3585573776 47.3934126664 18.6265668098
Fe 25.851800066 45.8919404658 17.1917087641
Fe 27.25732085 47.3512476757 18.6399664516
Fe 28.6814423244 45.9421300164 17.1711008784
Fe 30.1357945068 47.2989857643 18.6902163923
Fe 31.5140888768 45.954622251 17.2218904499
Fe 33.0516702585 47.3087038778 18.6856553115
Fe 34.4755784463 45.8776125995 17.2563960172
Fe 35.9097836283 47.3173947366 18.7071655506
Fe 37.2549758055 45.9338684173 17.2101444193
Fe 38.789887176 47.3044316805 18.6446086697
Fe 40.1786213865 45.9172255748 17.2352269679
Fe 41.6363527796 47.3005905918 18.7022245525
Fe 43.0156294415 45.9771231779 17.2422034442
Fe 44.4455892344 47.360319413 18.6459016065
Fe 45.9738590306 45.914354381 17.1975108304
Fe 47.3341857928 47.2990642463 18.6036422647
Fe 48.7432691792 45.8644138669 17.260363678
Fe 50.2573437017 47.3012043828 18.6219155207
Fe 51.7078775412 45.8905183454 17.2677412881
Fe 53.049425417 47.3798896755 18.649830167
Fe 54.544617889 45.902571799 17.221493678
Fe 55.9287934056 47.3196520718 18.666805517
Fe 0.0287327469 48.7809544179 17.2699943388
Fe 1.4730291274 50.2071613085 18.6449728951
Fe 2.826263242 48.7845460288 17.2593686078
Fe 4.3475394997 50.2500712566 18.6296385307
Fe 5.6940279649 48.8217355321 17.2499444206
Fe 7.2207979478 50.1877298659 18.6958040882
Fe 8.6389957213 48.8329647004 17.2021965331
Fe 10.0781724307 50.2094490861 18.6321667381
Fe 11.4911902799 48.8087382223 17.169260074
Fe 12.8762353665 50.2113494689 18.6330922767
Fe 14.309449423 48.7793114091 17.1904311232
Fe 15.744133982 50.2301513347 18.6872709691
Fe 17.2603370001 48.7478855581 17.2545787783
Fe 18.6104247706 50.1699203938 18.673407267
Fe 20.0656257084 48.7486913733 17.20008097
Fe 21.5352092701 50.2179104447 18.6839293673
Fe 22.9812740197 48.7392562604 17.2497679117
Fe 24.4070816921 50.195514725 18.6024608178
Fe 25.8529533425 48.8098911578 17.2282092115
Fe 27.3216255885 50.2502089164 18.6050392485
Fe 28.6732297532 48.8174767771 17.1690727495
Fe 30.1382380199 50.2632425271 18.6827920371
Fe 31.521969153 48.8471100979 17.19751354
Fe 33.0577487418 50.2271285229 18.6507263736
Fe 34.4955727958 48.8281515386 17.2322777018
Fe 35.8834521083 50.2609187493 18.6891825655
Fe 37.3654281089 48.7481351254 17.2102763638
Fe 38.7732949307 50.1997248474 18.6653512255
Fe 40.1870238722 48.837812493 17.23298112
Fe 41.5987522061 50.2774773219 18.623161752
Fe 43.0794923494 48.7681779661 17.2558747191
Fe 44.4857064353 50.2060744318 18.6271479715
Fe 45.910153016 48.8356295328 17.2521398996
Fe 47.3373579027 50.2420650493 18.622607872
Fe 48.7837199712 48.83781608 17.2364251095
Fe 50.2644418623 50.2428477596 18.6684689196
Fe 51.6228350856 48.7687385961 17.2431034766
Fe 53.1230158265 50.2513308805 18.6858367735
Fe 54.5855743757 48.8323127434 17.2489755525
Fe 55.981770545 50.2578037383 18.675301282
Fe 57.3751519553 51.6644561059 17.2127407947
Fe 1.3959304447 53.1068736174 18.6972596465
Fe 2.8975254826 51.6455744482 17.1823739117
Fe 4.3493193987 53.1174888902 18.6165159915
Fe 5.6935231204 51.6825197555 17.1828214527
Fe 7.1231312567 53.1073157668 18.6336277073
Fe 8.5598767612 51.7058227692 17.2728578192
Fe 9.9904039841 53.1239385208 18.6782470698
Fe 11.4999004317 51.636002481 17.2745825061
Fe 12.9023782208 53.0452493297 18.6923208689
Fe 14.3544017534 51.7150885678 17.1692084247
Fe 15.7631237926 53.0944366294 18.6995383187
Fe 17.2515085461 51.6075460011 17.2596608926
Fe 18.6952625575 53.0520203218 18.6100557764
Fe 20.0851582342 51.6565040248 17.1910505766
Fe 21.4736774596 53.0780053925 18.603553077
Fe 23.016277858 51.6167032918 17.2547739712
Fe 24.3964881781 53.1153548435 18.7022275854
Fe 25.7981274359 51.7089938944 17.2438715871
Fe 27.291231993 53.0660649268 18.6087883581
Fe 28.7308678875 51.6111373561 17.1712510975
Fe 30.147963887 53.0893659082 18.6287180587
Fe 31.5505975606 51.6624730586 17.274326823
Fe 33.0302205259 53.0495563156 18.6912913049
Fe 34.4363686729 51.6690697477 17.1926082938
Fe 35.8996479608 53.0722950717 18.7096434801
Fe 37.3209781164 51.6232212522 17.1862190392
Fe 38.7459531766 53.1178519728 18.6192290283
Fe 40.2197582548 51.693887984 17.2011209304
Fe 41.6218373336 53.0896097609 18.6046046567
Fe 43.0716709227 51.6572185268 17.1923321118
Fe 44.5420906927 53.1216245527 18.649446703
Fe 45.8655871193 51.623602292 17.2609657496
Fe 47.2997162809 53.0468935476 18.7038706147
Fe 48.7802345138 51.6707349619 17.2033660083
Fe 50.1970559619 53.0501119255 18.6671300365
Fe 51.6711303234 51.7112981616 17.1693780242
Fe 53.0985647636 53.0653164462 18.7009696684
Fe 54.5207979905 51.6974416306 17.2625742768
Fe 55.9557804633 53.0956424845 18.6960294777
Fe 0.0511199725 54.5048093333 17.2159846131
Fe 1.3846381594 55.9660931431 18.6293085031
Fe 2.8892582181 54.5493154748 17.1673248919
Fe 4.331279702 56.0172445718 18.6245692202
Fe 5.7087415987 54.5775018565 17.2461849841
Fe 7.2272252638 55.9905852973 18.6503061415
Fe 8.5936933179 54.5308140568 17.1932459028
Fe 10.0769010625 55.9737968828 18.7084087156
Fe 11.4375246732 54.5704273612 17.1735210882
Fe 12.878211829 55.9905641671 18.6377885669
Fe 14.3291920561 54.4944115075 17.1941427568
Fe 15.7325902132 56.0154820478 18.653586392
Fe 17.2536624171 54.52642589 17.2258538159
Fe 18.6462202094 55.9162395833 18.6385205644
Fe 20.0451428669 54.4869842608 17.1730198556
Fe 21.560925432 55.9473285752 18.6941797462
Fe 22.9387231142 54.4904279667 17.265972707
Fe 24.3489575399 55.9265407901 18.6578014554
Fe 25.8353760575 54.5661684657 17.1779349641
Fe 27.3093932794 55.9101837663 18.6687687135
Fe 28.7045883593 54.5290700732 17.1807476043
Fe 30.1857589935 55.9104935044 18.6316112196
Fe 31.5452690285 54.5463886771 17.2391639468
Fe 32.9914581559 55.9991785426 18.6124595792
Fe 34.473177068 54.5369988715 17.1969892286
Fe 35.8741549886 55.9135868663 18.6334063103
Fe 37.3275416242 54.5162541932 17.2203231987
Fe 38.733257873 56.0091776962 18.6140200237
Fe 40.1529073713 54.5368666712 17.2512084594
Fe 41.5871240937 55.9120513959 18.7116171795
Fe 42.9986421278 54.5147021169 17.2034666753
Fe 44.4275592893 55.9130242453 18.6465441779
Fe 45.903744537 54.5298450543 17.2474439902
Fe 47.4012559415 55.9569518552 18.7094467923
Fe 48.8424931826 54.5085396643 17.2267727667
Fe 50.1951372326 55.9463860866 18.6581321239
Fe 51.686225416 54.5108318757 17.1714733473
Fe 53.0463222854 55.923953858 18.7111151405
Fe 54.4959321509 54.5789821517 17.2310901682
Fe 55.9398067971 55.9183604922 18.6767717127
Fe 57.3624293123 57.3580156881 20.1090896004
Fe 1.4606086514 1.3957276016 21.5618159852
Fe 2.8580263701 57.3644101426 20.0618275812
Fe 4.2726539874 1.4685443556 21.5209277857
Fe 5.7496898373 57.3774158966 20.1322333133
Fe 7.1572009089 1.4711293195 21.5564222244
Fe 8.6063091709 0.0014246472 20.0566672736
Fe 10.0354410493 1.4013155241 21.4746436425
Fe 11.5345520637 57.3519910608 20.097651822
Fe 12.8801461283 1.4257397312 21.5042363456
Fe 14.3262489696 0.0144672405 20.053595973
Fe 15.8072590742 1.4135994604 21.4753591128
Fe 17.2635173786 0.0341922113 20.1143502474
Fe 18.5976911343 1.3791930709 21.5725812318
Fe 20.0589111323 57.3920884676 20.1203216149
Fe 21.5268239795 1.3935578598 21.5419863392
Fe 22.9399777728 0.0424611811 20.043900992
Fe 24.3747726341 1.3921629963 21.5471329672
Fe 25.8198695576 0.0254548979 20.0578747306
Fe 27.3024668636 1.4686960832 21.5657862691
Fe 28.7355665097 57.3478334257 20.1228212216
Fe 30.1663633566 1.4363867449 21.5041123035
Fe 31.6020458354 0.0574034824 20.1056309287
Fe 33.0168221684 1.4217160763 21.5231891314
Fe 34.4853067358 57.3643427795 20.0489145621
Fe 35.8257578612 1.4085866877 21.4876546537
Fe 37.2812330159 57.3889087368 20.0811316778
Fe 38.8028122377 1.4274679583 21.5025513386
Fe 40.2333515603 57.3643727088 20.0400126658
Fe 41.5818779566 1.48141351 21.5683458844
Fe 43.0189386762 0.054093754 20.0810254362
Fe 44.4449293004 1.3980158309 21.5545469727
Fe 45.9190721295 57.3582366759 20.1068174642
Fe 47.3739879607 1.4763478199 21.5533517897
Fe 48.7801539235 57.3643008001 20.1182026125
Fe 50.2031230013 1.4276067831 21.5078411843
Fe 51.6662952089 0.0187367625 20.1359989977
Fe 53.1310903148 1.4645282558 21.5311013553
Fe 54.575263979 57.372086824 20.0561733794
Fe 55.957148292 1.3859892372 21.5459590297
Fe 0.0140476807 2.8529894965 20.1113880129
Fe 1.450400204 4.3527441983 21.4754250475
Fe 2.9005818492 2.8403303011 20.1135787167
Fe 4.3412898445 4.2658399443 21.5017178503
Fe 5.7471145422 2.8716445065 20.0859059946
Fe 7.1953481222 4.3414408768 21.482474704
Fe 8.6203780719 2.9105549383 20.0424793138
Fe 9.9993447633 4.3491449884 21.5107224159
Fe 11.4886939947 2.8690899779 20.0933638905
Fe 12.9725326979 4.3260177195 21.522310816
Fe 14.3025075771 2.8135442593 20.1376379299
Fe 15.7718674423 4.3079733952 21.4776973829
Fe 17.216212689 2.920781917 20.0914417021
Fe 18.6380963914 4.3089078926 21.5673100353
Fe 20.0955406584 2.8873076329 20.0980828646
Fe 21.5186923783 4.2700691532 21.5012210581
Fe 22.9612906238 2.8812402691 20.0945353839
Fe 24.3389433211 4.3418587501 21.5532753254
Fe 25.8259146723 2.8171684944 20.0468467351
Fe 27.2531332717 4.2543013147 21.4971858828
Fe 28.7072781701 2.8281238481 20.134283456
Fe 30.1680839287 4.2913916092 21.4798359109
Fe 31.5862115283 2.8755903052 20.1121817649
Fe 32.9650111191 4.2891906153 21.4730490383
Fe 34.3836681808 2.9082681796 20.0733139392
Fe 35.8732404297 4.3146071707 21.5142318021
Fe 37.3199432814 2.8899243798 20.1171669904
Fe 38.7715937883 4.2780750761 21.5361814401
Fe 40.1819336647 2.8314440997 20.0365650976
Fe 41.5645759171 4.27309867 21.4719512639
Fe 43.013805617 2.9077210024 20.0870769439
Fe 44.4871129261 4.3037931553 21.5603859944
Fe 45.9740959678 2.9208450296 20.0526852568
Fe 47.3151340072 4.2848902981 21.5418719562
Fe 48.7845418571 2.8637834669 20.1259273584
Fe 50.1946703903 4.3566781607 21.5038117004
Fe 51.7121008432 2.8487008311 20.0963531393
Fe 53.0398039951 4.3523408649 21.4735988621
Fe 54.4775261614 2.82003331 20.0745499853
Fe 55.9125553321 4.3496030729 21.5573259987
Fe 57.365418784 5.7579008116 20.0396675394
Fe 1.4694887248 7.2231870706 21.5384541009
Fe 2.8428814173 5.7676083311 20.1179946234
Fe 4.3212989717 7.2322896 21.5768685898
Fe 5.7062849988 5.7426446418 20.0527169815
Fe 7.2093628659 7.217974703 21.4811636939
Fe 8.586053114 5.7877053725 20.0863786963
Fe 10.0450002535 7.1788013968 21.5325553182
Fe 11.4272526359 5.7141297805 20.1396964729
Fe 12.9727881097 7.1940580586 21.478769662
Fe 14.3152356691 5.7952909465 20.1304000179
Fe 15.7340266337 7.2313114567 21.4758970994
Fe 17.1719908992 5.7323635196 20.0811989912
Fe 18.7017691743 7.1462559522 21.5202531793
Fe 20.1466366458 5.738816239 20.1285722195
Fe 21.4827141759 7.1335847221 21.554659657
Fe 22.9788778969 5.7885962721 20.0770824393
Fe 24.4043499366 7.1725271271 21.471830331
Fe 25.8455831446 5.7292301153 20.1474810246
Fe 27.2578614029 7.1817949628 21.5496835785
Fe 28.6534788125 5.777869213 20.113093678
Fe 30.0864614671 7.221552197 21.5652831956
Fe 31.5335870009 5.6988486684 20.0457033285
Fe 33.0149761003 7.172034881 21.4731804903
Fe 34.4152065801 5.7346328574 20.0463588572
Fe 35.8441732397 7.2125577046 21.4839380688
Fe 37.3002668044 5.7637485167 20.0328795401
Fe 38.7831536709 7.1486198964 21.5035936878
Fe 40.2033818563 5.7430713242 20.0607844829
Fe 41.5744710871 7.1325267082 21.5797206685
Fe 43.0172978954 5.7460445022 20.1359223583
Fe 44.4930622733 7.1448651141 21.4740206997
Fe 45.9486373895 5.7393652082 20.0749292011
Fe 47.3731496914 7.1421563856 21.5321484297
Fe 48.7599259198 5.7520719407 20.1200440784
Fe 50.1983811359 7.1408087608 21.4762611275
Fe 51.6226546527 5.7878521726 20.0684307209
Fe 53.1492532407 7.1189048993 21.5114988481
Fe 54.4952711002 5.7123009761 20.1113694396
Fe 55.9294096287 7.1503706642 21.4811019488
Fe 0.0154234204 8.5582058779 20.092969815
Fe 1.4503614484 10.1028271852 21.5065806589
Fe 2.8190946458 8.6224892169 20.1211290739
Fe 4.2966516394 10.0611264641 21.5797090853
Fe 5.7190522184 8.5616732217 20.1328485744
Fe 7.2062621006 10.0921223065 21.5182000438
Fe 8.6131827585 8.5852881844 20.1413340921
Fe 9.9882529579 10.0960666843 21.5446024215
Fe 11.426639671 8.6408439704 20.069461937
Fe 12.9460203165 10.0796146439 21.5352187267
Fe 14.2976445508 8.6079861254 20.1178856259
Fe 15.7920870077 10.0993803676 21.4746815775
Fe 17.2520769554 8.6617220326 20.1012882968
Fe 18.6630621791 10.0366187001 21.4760213152
Fe 20.0412758681 8.5588480528 20.1474392512
Fe 21.4745047567 10.0641877645 21.5709015947
Fe 22.9800384405 8.5947594016 20.1389585243
Fe 24.4163762697 10.0586596247 21.5584772863
Fe 25.8422099286 8.6396292888 20.0563115105
Fe 27.2165280947 9.9951823225 21.4873852549
Fe 28.6494994562 8.6576459995 20.0706697622
Fe 30.1645275488 10.0152368745 21.4878586249
Fe 31.6085650144 8.6333216126 20.047618483
Fe 33.0326449527 10.0415949363 21.5409094499
Fe 34.4344164003 8.5708314257 20.1454402325
Fe 35.9007794892 10.0994238313 21.4839760215
Fe 37.3490011921 8.661905227 20.1445784847
Fe 38.6885283597 10.0443837385 21.5325212745
Fe 40.1896613533 8.5779580711 20.0837039612
Fe 41.5858407051 10.0044286639 21.5537101584
Fe 43.0612540761 8.6499845944 20.0748111369
Fe 44.4788947914 10.0276475109 21.4746965073
Fe 45.9070563171 8.5967831799 20.0599697085
Fe 47.3874505161 10.0263650657 21.4870576089
Fe 48.7827505102 8.6508918519 20.0941617534
Fe 50.1833253704 9.9881862988 21.5256042072
Fe 51.6575506093 8.585211685 20.1091955417
Fe 53.0652656151 10.0185548574 21.5464651615
Fe 54.5465944049 8.6226470903 20.112948785
Fe 55.9362562401 10.0736515379 21.4816367964
Fe 0.0554036319 11.4991703516 20.0325822469
Fe 1.4779118385 12.9461372265 21.5318763023
Fe 2.8348856889 11.4998608913 20.1341762781
Fe 4.2700511681 12.9103770181 21.5744586446
Fe 5.6851700808 11.537252788 20.0725382839
Fe 7.1454784477 12.920428134 21.4929671125
Fe 8.6408207451 11.434283227 20.1426928282
Fe 10.0005675998 12.9487341008 21.5063046399
Fe 11.4993585696 11.4524589589 20.034701168
Fe 12.9119301828 12.9072166946 21.5090499798
Fe 14.3471882404 11.5034785975 20.1106670716
Fe 15.8149307972 12.8806292985 21.477525614
Fe 17.2234356971 11.5160941544 20.0570897423
Fe 18.6264309083 12.941984898 21.5590769564
Fe 20.1027082039 11.5105895515 20.0564431642
Fe 21.5238000471 12.8629449704 21.5668069855
Fe 22.9385381275 11.4433158876 20.1404226403
Fe 24.4157389418 12.9319656999 21.5549971901
Fe 25.8165730222 11.4407448379 20.1469217848
Fe 27.2193854754 12.9525919352 21.4967423953
Fe 28.6961217453 11.4810659805 20.1386464538
Fe 30.1110377063 12.8688590572 21.494498566
Fe 31.5683743498 11.4648300544 20.0738233887
Fe 33.057211129 12.9104271462 21.5092471607
Fe 34.4888063758 11.4918195574 20.0767669319
Fe 35.8598282242 12.9169952584 21.4677181179
Fe 37.2805255795 11.5353625911 20.0357448835
Fe 38.7658196687 12.8826331819 21.5490802927
Fe 40.2182936896 11.4318712219 20.0754264137
Fe 41.6437887843 12.9675270311 21.5694084447
Fe 43.0642306883 11.4500291017 20.1303859456
Fe 44.5181212469 12.9539378283 21.5240516889
Fe 45.9095634591 11.4643626645 20.1057582983
Fe 47.4049510054 12.9682964353 21.526073499
Fe 48.8283983262 11.4889509626 20.033736651
Fe 50.2533379235 12.87168667 21.5362924296
Fe 51.6335277353 11.453243964 20.1006489416
Fe 53.1106435742 12.8958041027 21.5605602338
Fe 54.5563941087 11.5261459329 20.1326236701
Fe 55.919702474 12.9165229793 21.5488179714
Fe 0.0098594693 14.4052896991 20.0466803691
Fe 1.4119681005 15.7725984429 21.5002465186
Fe 2.8489329436 14.3929198575 20.1135208016
Fe 4.3622858638 15.7515659228 21.4982291563
Fe 5.7349333692 14.3087596405 20.0393483157
Fe 7.1253454835 15.7483650467 21.5724422903
Fe 8.5988342484 14.3584678141 20.0739793118
Fe 9.9960442789 15.8412306311 21.5794909825
Fe 11.4480776366 14.3740030599 20.1139663403
Fe 12.8675735357 15.7368346657 21.4826578642
Fe 14.3224969726 14.2955277973 20.0559286924
Fe 15.7332818124 15.8036352891 21.4821418253
Fe 17.2557364718 14.3489865047 20.1425032245
Fe 18.6398355119 15.8363605625 21.4786311028
Fe 20.1413701597 14.3666601957 20.0362675938
Fe 21.5777663061 15.812861018 21.4841416073
Fe 23.0124261167 14.3679218947 20.046870346
Fe 24.4324863295 15.7389740597 21.4724013398
Fe 25.8576051512 14.3387660518 20.0521553368
Fe 27.268460124 15.7865212369 21.4932600845
Fe 28.6453505242 14.3495154968 20.0893556246
Fe 30.1847081321 15.7321658686 21.4771881334
Fe 31.5376791105 14.3286914698 20.0699327468
Fe 32.9939547489 15.753559566 21.5263758143
Fe 34.4446567718 14.3161038351 20.0834270042
Fe 35.8451092328 15.8042032123 21.499544842
Fe 37.2662189435 14.3046017186 20.1390264235
Fe 38.7606926413 15.734868711 21.5658902387
Fe 40.1650138288 14.3717852089 20.0857957284
Fe 41.5866774938 15.8296595315 21.522543439
Fe 43.0475596299 14.3935737605 20.1019785128
Fe 44.5381118963 15.8109181124 21.5356244184
Fe 45.9289266043 14.3286620397 20.1390170827
Fe 47.3184296606 15.7332572061 21.5020228272
Fe 48.8415685611 14.3111807008 20.0734509732
Fe 50.1747164095 15.8079387854 21.5592199035
Fe 51.6637002449 14.2970547599 20.0430808012
Fe 53.1288628428 15.7529660925 21.5578484196
Fe 54.5773759159 14.3751325348 20.1234451803
Fe 55.9234421595 15.7945002759 21.5522644165
Fe 57.3685507985 17.2475186553 20.0737046341
Fe 1.403828357 18.6440293909 21.4899204972
Fe 2.8207148266 17.2690053704 20.1138914559
Fe 4.2865971075 18.6721813188 21.5372985641
Fe 5.7689083302 17.2615788096 20.0630595388
Fe 7.1553869927 18.5995276923 21.5071090646
Fe 8.5576700617 17.2185365515 20.0821542824
Fe 10.029972723 18.7044550179 21.5328908619
Fe 11.4338764475 17.1679369387 20.06391011
Fe 12.9369636113 18.641508944 21.540838802
Fe 14.3457118478 17.2310989211 20.0820326645
Fe 15.7634544451 18.6141189879 21.4978563108
Fe 17.2702095297 17.2619153963 20.1257442722
Fe 18.6108823033 18.7119679164 21.5410498652
Fe 20.1372336698 17.1842767187 20.0462376206
Fe 21.4837607289 18.6064703404 21.4941377681
Fe 22.9446821989 17.2231050666 20.0341503387
Fe 24.3623223197 18.6037953365 21.5074336147
Fe 25.8718675297 17.2109905677 20.0945535437
Fe 27.2697458932 18.662322336 21.5390553289
Fe 28.7017201962 17.187534556 20.040427925
Fe 30.134974901 18.6165872335 21.4995322456
Fe 31.5627885489 17.190646634 20.105479153
Fe 32.9700381729 18.6981974661 21.5727584302
Fe 34.4812046914 17.2437151576 20.044896774
Fe 35.8829497263 18.636701219 21.5194484934
Fe 37.3045009375 17.2701771426 20.0695957288
Fe 38.7081820139 18.6145425538 21.5701662779
Fe 40.1836981675 17.2221066578 20.1461896601
Fe 41.6059974496 18.6584754864 21.4779778115
Fe 43.1014343884 17.2075005654 20.111036071
Fe 44.4518549449 18.6690143839 21.5553025772
Fe 45.8722449204 17.2350276102 20.1132552651
Fe 47.3836373346 18.7106250726 21.528175214
Fe 48.8378675892 17.183773569 20.1292033453
Fe 50.255685178 18.6104090455 21.573890426
Fe 51.6172307067 17.274729981 20.0483072805
Fe 53.1082264596 18.6867107358 21.5633493842
Fe 54.5409861338 17.2272265819 20.0418008827
Fe 55.9890265459 18.6492848719 21.5009137729
Fe 57.3985010608 20.0607509366 20.0991865712
Fe 1.4030817592 21.5715639642 21.5353646495
Fe 2.8429735286 20.1135383897 20.1369868263
Fe 4.3248539609 21.4842191451 21.488356169
Fe 5.7516173296 20.1103611936 20.0795452767
Fe 7.1328758657 21.5615458628 21.5591413402
Fe 8.6558893138 20.0442685681 20.1115458299
Fe 10.0936595039 21.4925183725 21.5473178045
Fe 11.4688321245 20.0894871461 20.1104383817
Fe 12.9311843111 21.5214094185 21.4900289433
Fe 14.3815765242 20.0831110375 20.0380481078
Fe 15.7650946723 21.5178029768 21.4920747813
Fe 17.2351359633 20.1197067761 20.0713686305
Fe 18.6116597649 21.5212221177 21.5438769424
Fe 20.1214675234 20.145359198 20.0863563116
Fe 21.5494044577 21.4911228437 21.5338695798
Fe 23.0141835622 20.080462159 20.1041802177
Fe 24.4324537108 21.5109885984 21.5088152943
Fe 25.8085640404 20.1351153802 20.0715094698
Fe 27.228620356 21.5805734921 21.4736581548
Fe 28.7341830475 20.1361342744 20.0731283479
Fe 30.1076712004 21.5742764995 21.480063623
Fe 31.6123983898 20.0620775891 20.0937241226
Fe 33.0238122764 21.4716096245 21.479745715
Fe 34.4451453512 20.03731432 20.1376096362
Fe 35.9027374582 21.5821961968 21.5369927834
Fe 37.3116081119 20.0568679135 20.0337163319
Fe 38.7840846984 21.5580742621 21.5155685736
Fe 40.2146695965 20.1371062159 20.0622000178
Fe 41.6553138344 21.501531231 21.4936455337
Fe 43.006937276 20.0864643818 20.0568078581
Fe 44.5189948922 21.5683729928 21.5228855376
Fe 45.8758635943 20.0889255725 20.1130066945
Fe 47.3205615234 21.5685928598 21.5235678717
Fe 48.8070141469 20.0415310112 20.0971746677
Fe 50.2612932217 21.4718396456 21.5432935305
Fe 51.6563083915 20.0914780269 20.0629806149
Fe 53.0985364086 21.479535727 21.4983956712
Fe 54.4774712476 20.038478119 20.1027011138
Fe 55.9755153719 21.5311315584 21.477415913
Fe 0.0072687391 22.9771529308 20.0928744303
Fe 1.4847408683 24.406733003 21.5161949943
Fe 2.8632797357 22.988484295 20.1028816181
Fe 4.2777779008 24.3809629902 21.5141963627
Fe 5.7729704114 22.9109987274 20.05782555
Fe 7.1978456611 24.3835845405 21.5565103878
Fe 8.5677031752 22.9726142215 20.1060319968
Fe 10.0582116985 24.4257652947 21.5783853616
Fe 11.5309436524 23.0162321616 20.0923807788
Fe 12.8872421335 24.3694813901 21.5248171998
Fe 14.3861454005 22.9989299355 20.0736199737
Fe 15.7278934687 24.3374914093 21.5052732352
Fe 17.2777428242 22.9429386693 20.0627774934
Fe 18.679001414 24.4236818245 21.557107617
Fe 20.1340233654 22.9152626519 20.0654294689
Fe 21.5342767409 24.3511015083 21.5705189316
Fe 22.9159788126 22.9673037976 20.0914028918
Fe 24.3973540469 24.3826240753 21.4886618857
Fe 25.7997664512 22.9475013083 20.0487784659
Fe 27.228717989 24.3608130125 21.5479330726
Fe 28.7226495562 23.0110090589 20.1368228226
Fe 30.0850092502 24.3727328384 21.5032834214
Fe 31.5775215024 22.9813064313 20.0748094944
Fe 32.955524149 24.3445378645 21.4772787429
Fe 34.3908515542 22.9824163276 20.064831626
Fe 35.9127488768 24.3702259993 21.5367170091
Fe 37.2804113515 22.9191646023 20.1103996133
Fe 38.7098440566 24.4343885844 21.5278156402
Fe 40.1719931602 22.9884629331 20.0550266769
Fe 41.626915054 24.418693232 21.5220565471
Fe 43.0714593167 22.9958216794 20.1157226418
Fe 44.53854875 24.4488793618 21.504952617
Fe 45.9766236131 22.9404570919 20.1136449688
Fe 47.3023271065 24.3663473172 21.5358221876
Fe 48.8371059286 22.9156836935 20.0781926522
Fe 50.2060694882 24.4516059295 21.5404595727
Fe 51.694124607 22.9417888584 20.1278212812
Fe 53.1070147413 24.4138900602 21.5823528296
Fe 54.5792909595 22.9533035926 20.0759976345
Fe 55.9661141885 24.3990354798 21.5577535317
Fe 57.3690124658 25.8872330568 20.0581540123
Fe 1.3993426048 27.2364703265 21.564112212
Fe 2.8286143712 25.8536535798 20.1125326435
Fe 4.2608225647 27.2965929465 21.5259525364
Fe 5.7170186942 25.8462178616 20.0328372329
Fe 7.1323042456 27.2987720383 21.5406431971
Fe 8.6357489584 25.8112279099 20.0703282212
Fe 10.0544195872 27.211226475 21.5697923284
Fe 11.4241433602 25.8545390263 20.1089954698
Fe 12.9172718888 27.2508086274 21.4817685738
Fe 14.3817144109 25.7778580059 20.0746837945
Fe 15.7358810331 27.2261376249 21.5275382227
Fe 17.2560844785 25.7789074119 20.1450832524
Fe 18.6307914923 27.2091107951 21.570232234
Fe 20.1218582796 25.8716555221 20.0383209391
Fe 21.5369230466 27.3171225275 21.5561128657
Fe 22.9025288436 25.8093396714 20.1251477141
Fe 24.4389377852 27.223306251 21.5045220231
Fe 25.7817918382 25.8629699763 20.0558418751
Fe 27.2655972446 27.2102142841 21.5404065948
Fe 28.7070905755 25.8823320019 20.1270000527
Fe 30.1086133477 27.2386829916 21.4782704565
Fe 31.6123693893 25.8564983313 20.0966338249
Fe 33.0183229118 27.2211145604 21.5448198142
Fe 34.489080612 25.873590871 20.1226693555
Fe 35.9292027146 27.2546084136 21.4726079096
Fe 37.2899544115 25.8642781578 20.1039754643
Fe 38.6971540021 27.255858518 21.5306491495
Fe 40.1680875906 25.8607318293 20.0502121191
Fe 41.6331636596 27.2348947348 21.4862764592
Fe 43.0273039186 25.8172625327 20.0571071972
Fe 44.4997381669 27.3177113942 21.4972025596
Fe 45.8961756881 25.8354714111 20.1131200347
Fe 47.3042553191 27.2238045869 21.5144719472
Fe 48.7862309799 25.8752627729 20.1441093404
Fe 50.1679730864 27.3019422873 21.5206736117
Fe 51.6235711507 25.7988009987 20.0723536234
Fe 53.0914204652 27.2995259599 21.469022235
Fe 54.5243459117 25.8597973481 20.0810231426
Fe 55.9902575687 27.2171457455 21.5511118819
Fe 57.3437371646 28.6824687271 20.0886092626
Fe 1.4278360127 30.0836369694 21.5253423261
Fe 2.9197612042 28.7564856306 20.0440076364
Fe 4.3461787398 30.1031653739 21.5376237059
Fe 5.7101860683 28.6867287542 20.1435893544
Fe 7.2097836856 30.133373464 21.4765152878
Fe 8.6542670718 28.6656385004 20.1408154915
Fe 10.0529285899 30.0851429708 21.5213298973
Fe 11.5276020559 28.7497221477 20.0821667028
Fe 12.9035391117 30.186361916 21.4724256092
Fe 14.3711703541 28.7434757302 20.0477282248
Fe 15.7453060554 30.0847938435 21.5231180657
Fe 17.229325017 28.7137813386 20.0838633287
Fe 18.6905226228 30.1727226388 21.5088267503
Fe 20.0648896889 28.7073662476 20.1415292238
Fe 21.5332095528 30.0959155246 21.5063042111
Fe 22.942577653 28.7362222226 20.0812527988
Fe 24.3786797133 30.1903588228 21.5512451141
Fe 25.8423566612 28.6868373065 20.1065417312
Fe 27.2503606788 30.083348014 21.5753103369
Fe 28.6918005904 28.6506302308 20.1253329191
Fe 30.1239132861 30.1294609375 21.5242657421
Fe 31.6146249681 28.6640413287 20.0980795102
Fe 32.9778655019 30.1101452842 21.5792930331
Fe 34.4755674892 28.6647318421 20.1094401686
Fe 35.8202758823 30.1226487283 21.5687230101
Fe 37.263506725 28.7056392964 20.1003414371
Fe 38.7543026757 30.1174029177 21.5758043692
Fe 40.1396906191 28.6644980416 20.078012504
Fe 41.6584445365 30.1428929857 21.4764655375
Fe 43.0789600535 28.6994791474 20.0788482675
Fe 44.5240480379 30.0952384845 21.4886334821
Fe 45.9137515408 28.7459537408 20.144512841
Fe 47.3132548078 30.1737275016 21.4887291016
Fe 48.8030162784 28.6617524752 20.0633082022
Fe 50.2662538547 30.1598243968 21.5185237598
Fe 51.6935868592 28.7185951948 20.0387011471
Fe 53.1315306258 30.1254485513 21.4854559675
Fe 54.5082163981 28.7148639038 20.1050658025
Fe 55.9464957571 30.0910291079 21.4862552589
Fe 57.3431675144 31.6246411234 20.1384037778
Fe 1.4539556365 33.0215797371 21.5707024331
Fe 2.8591025098 31.5124971169 20.1159659358
Fe 4.2644944456 32.9583651688 21.4860725304
Fe 5.744864959 31.5718761847 20.0323440959
Fe 7.2086264705 33.0245117715 21.510148682
Fe 8.6579943876 31.5877282114 20.0586346897
Fe 10.0849153366 33.0496069623 21.5003316338
Fe 11.4703309673 31.5810093647 20.0453233649
Fe 12.8828225194 33.0574144948 21.4894221716
Fe 14.3028464916 31.6060036885 20.08566215
Fe 15.8150322694 33.0223373863 21.5248574333
Fe 17.2095576335 31.5692454647 20.1194443094
Fe 18.5985657024 32.9677942866 21.5677715883
Fe 20.1409576358 31.5831010351 20.0607330605
Fe 21.5560705878 32.9514385402 21.4806479375
Fe 22.9919804443 31.6225575066 20.1096088532
Fe 24.4358583433 33.0520857909 21.572007853
Fe 25.852372472 31.6082353992 20.0589834037
Fe 27.2519083751 32.9979246638 21.5817136943
Fe 28.7248271384 31.576327135 20.0871596473
Fe 30.1894305268 33.0303455594 21.5047993797
Fe 31.6125481066 31.5769416384 20.0481089976
Fe 32.9651425216 33.0047943881 21.5531418302
Fe 34.4039716587 31.5499593137 20.1299202996
Fe 35.9025665704 33.0294551471 21.4708455425
Fe 37.2830484167 31.5640948809 20.075452753
Fe 38.6907088949 32.970400441 21.5140017383
Fe 40.228763841 31.6033227047 20.1062092509
Fe 41.5612003559 32.9686151937 21.5658458783
Fe 43.0591250703 31.5482367484 20.065927574
Fe 44.4871240818 33.0556039978 21.5330111964
Fe 45.8654978039 31.5560636162 20.0914017537
Fe 47.327772887 33.0443007614 21.5339067889
Fe 48.7590120475 31.6233369833 20.1190441764
Fe 50.1871924772 33.0231490072 21.546509954
Fe 51.7094212049 31.6200351774 20.0946392091
Fe 53.055834356 33.0424507123 21.4683120244
Fe 54.5875447686 31.56339241 20.0621684747
Fe 55.9530799954 33.0280054998 21.4752591331
Fe 57.39974163 34.4084615964 20.0460683047
Fe 1.3854315631 35.8620594654 21.4853096267
Fe 2.8726383524 34.4377627329 20.095867218
Fe 4.3087796374 35.8530119462 21.4918770121
Fe 5.7398149844 34.4574400989 20.0801792195
Fe 7.2053657809 35.9203080449 21.5507757069
Fe 8.6150169316 34.4268058084 20.1051610695
Fe 10.0550069858 35.9070095693 21.5289329453
Fe 11.4872896645 34.4842252899 20.1279024876
Fe 12.9088044668 35.8642133995 21.525508886
Fe 14.3096562993 34.4054940491 20.114163921
Fe 15.7990061377 35.8201343815 21.5651174373
Fe 17.247539326 34.4800174677 20.1462182656
Fe 18.6888595792 35.902138851 21.5087548237
Fe 20.0623247844 34.4895702765 20.0993384689
Fe 21.5079718554 35.8632127195 21.5007476361
Fe 22.9337311746 34.406261916 20.1211267972
Fe 24.4183168463 35.8556597084 21.4801031832
Fe 25.8777083106 34.4269160166 20.0595039973
Fe 27.2102982619 35.909915515 21.5496414575
Fe 28.7284160834 34.4023151527 20.0854535929
Fe 30.1569070556 35.8291039619 21.5087769023
Fe 31.5892117866 34.4096006398 20.0334569332
Fe 33.0594915758 35.8818295032 21.5090728519
Fe 34.4762291916 34.3957259541 20.0619578435
Fe 35.9322025628 35.8277552053 21.492359464
Fe 37.2726294286 34.3966904091 20.0350800037
Fe 38.6910998499 35.8815673038 21.5688085571
Fe 40.1330974129 34.412688138 20.1334345823
Fe 41.6533081659 35.8530088783 21.5696171942
Fe 43.0680087063 34.4561456985 20.1079598111
Fe 44.4806597677 35.9100573634 21.4719431291
Fe 45.9115778237 34.4193545193 20.1433889881
Fe 47.4061107752 35.9128163271 21.5004725406
Fe 48.7635793734 34.4401070983 20.0683419115
Fe 50.2348857662 35.8510147415 21.5303550421
Fe 51.6281262512 34.4299346701 20.0545284042
Fe 53.065065392 35.8793367493 21.4819809745
Fe 54.5375321711 34.4743072789 20.103900351
Fe 55.9634571682 35.888679325 21.4975466031
Fe 57.3521392116 37.2920521811 20.1476548294
Fe 1.4702326439 38.6920838601 21.4765578082
Fe 2.8147138034 37.2635499377 20.1474917179
Fe 4.2928150563 38.6962332678 21.5425917574
Fe 5.7714751133 37.3003939742 20.069133146
Fe 7.1528372793 38.7962953251 21.524326511
Fe 8.5874127197 37.292793239 20.0712812326
Fe 10.0528496702 38.7695467774 21.4830030809
Fe 11.4433911038 37.2715924985 20.0483256488
Fe 12.9210287284 38.7374460225 21.5721603109
Fe 14.3909799773 37.2723574896 20.146109901
Fe 15.8337237046 38.7058926145 21.5174072774
Fe 17.1914132561 37.2644717187 20.1366050366
Fe 18.6841484926 38.7986618384 21.5781568898
Fe 20.0764342565 37.2660915056 20.1362146173
Fe 21.4866911049 38.7510909186 21.502270516
Fe 22.9589516135 37.2531958444 20.116750235
Fe 24.3999784511 38.7840781674 21.491818045
Fe 25.8451253832 37.3652923463 20.1138645084
Fe 27.26636268 38.7842251036 21.4908905282
Fe 28.7245797816 37.3645750037 20.0384602309
Fe 30.1916167303 38.7842474726 21.48355928
Fe 31.560158511 37.3264464714 20.0545495177
Fe 33.0177965556 38.7099134375 21.5200597353
Fe 34.423943065 37.3143688083 20.0459973862
Fe 35.8220180952 38.7333379194 21.5377384831
Fe 37.31748604 37.3172819873 20.1380985398
Fe 38.7553795607 38.6968851439 21.5365112516
Fe 40.134625428 37.3073007501 20.0801399513
Fe 41.5855906655 38.7685328211 21.505782017
Fe 43.0055138267 37.3368108703 20.0378399458
Fe 44.5363552841 38.7152613063 21.4815642116
Fe 45.8806404377 37.2734497334 20.0386905931
Fe 47.3301974287 38.7793041327 21.5037545933
Fe 48.7906926479 37.360131639 20.0994939373
Fe 50.2802711794 38.7585886947 21.5096657874
Fe 51.6629103042 37.268198993 20.0988341341
Fe 53.1217530578 38.7930715269 21.5127320523
Fe 54.5498369091 37.2791643407 20.0895640942
Fe 55.9284210711 38.750522651 21.5093812951
Fe 0.0457254206 40.1538543827 20.1204078196
Fe 1.4170666229 41.5833618076 21.5699851811
Fe 2.8502744397 40.2285598103 20.0579663432
Fe 4.3611298235 41.642706874 21.4713403371
Fe 5.7174789632 40.1321876593 20.0668118879
Fe 7.2181931923 41.6084930066 21.5503773389
Fe 8.5717158934 40.1416897554 20.0599438929
Fe 10.038824342 41.5676764623 21.4842563895
Fe 11.4824087365 40.1842343482 20.0688386069
Fe 12.9205685524 41.6531142165 21.5103427882
Fe 14.3616918984 40.1695231548 20.0593926429
Fe 15.7497671058 41.6346824168 21.5623243102
Fe 17.1668534884 40.1250163035 20.0913323849
Fe 18.6304120818 41.6643416836 21.5120282255
Fe 20.1100484142 40.2378237019 20.115933101
Fe 21.4941543857 41.6342104381 21.5255037325
Fe 22.9441022679 40.2250954946 20.1090638781
Fe 24.4378813222 41.575937336 21.5181523361
Fe 25.8153031234 40.2039404479 20.0635110089
Fe 27.2989833718 41.614032242 21.467964468
Fe 28.7232351983 40.1847641971 20.0959129153
Fe 30.1871079018 41.5766076436 21.5498126005
Fe 31.5926264345 40.2113062185 20.1182700231
Fe 33.0398277072 41.6306567664 21.4745291085
Fe 34.4677561747 40.2013196894 20.1205375474
Fe 35.9056281948 41.575531407 21.4859217695
Fe 37.3591777681 40.1503551933 20.079638158
Fe 38.7687242153 41.6400593927 21.4745250259
Fe 40.1747873742 40.1876643923 20.0603181383
Fe 41.6545113454 41.5711217301 21.5001710439
Fe 43.1038255629 40.2231149872 20.1260127741
Fe 44.4618398031 41.5972456205 21.4890127779
Fe 45.8904379178 40.12538528 20.1106698272
Fe 47.3337761513 41.5740971415 21.5525213074
Fe 48.8035770793 40.1332126076 20.1015036228
Fe 50.1683403639 41.5625912493 21.476909471
Fe 51.7017116062 40.1312883244 20.0376744872
Fe 53.0810047572 41.6490933266 21.5434681788
Fe 54.5015012643 40.2029519418 20.04741552
Fe 55.948579553 41.5659082133 21.563958038
Fe 57.364474593 43.0855990542 20.1186117869
Fe 1.4541291884 44.4877529669 21.4724366994
Fe 2.9160727005 43.0395202405 20.0434734939
Fe 4.3002490623 44.5332179164 21.4925346036
Fe 5.7362494732 43.0793971563 20.1183404975
Fe 7.1798434695 44.5227967445 21.4823440188
Fe 8.6310696605 43.0122912215 20.0773501005
Fe 10.0826584229 44.4648051435 21.5079548905
Fe 11.5151632947 43.0885880581 20.0401382525
Fe 12.8767485482 44.5036673504 21.5219233293
Fe 14.3431355382 43.0516753711 20.0851474233
Fe 15.7819761835 44.4537228804 21.5642669352
Fe 17.2662455637 43.0184891151 20.1124296178
Fe 18.6119206422 44.4520448087 21.4871508763
Fe 20.0829662517 43.0133589406 20.1415712715
Fe 21.4730999186 44.5049199924 21.5302805607
Fe 22.9288903794 42.9971028567 20.0637196817
Fe 24.4474067184 44.5015111783 21.5520614845
Fe 25.8267901554 43.0819673832 20.0940202871
Fe 27.311082076 44.4503134327 21.5711143261
Fe 28.755190475 43.0964327036 20.103858519
Fe 30.1685591866 44.529361271 21.5458182312
Fe 31.5221183598 43.084675619 20.0324482625
Fe 32.973676681 44.5362046341 21.4845928264
Fe 34.4276181373 43.0008651966 20.1028934183
Fe 35.9039407118 44.4834186346 21.5308184466
Fe 37.287079372 43.0722473609 20.0803807875
Fe 38.697382771 44.441727724 21.529564584
Fe 40.1290206032 42.9940627931 20.073321102
Fe 41.65522887 44.5385933352 21.5594631101
Fe 43.0955829918 43.0002870565 20.1000621353
Fe 44.4828695955 44.4381641194 21.4905313963
Fe 45.919363879 43.01189262 20.1013313803
Fe 47.3168578433 44.5424980907 21.5461119888
Fe 48.8448558498 43.0301588621 20.0767427693
Fe 50.2731100757 44.4394121534 21.5063510157
Fe 51.6126247504 43.0937696658 20.1300395155
Fe 53.1371470322 44.4933456802 21.5027224863
Fe 54.4752861273 43.0436397238 20.1332565476
Fe 55.9744849108 44.5129996505 21.4716190869
Fe 57.3548750344 45.9690308054 20.1104455236
Fe 1.4394997305 47.2974740011 21.5087834429
Fe 2.8171814398 45.8918441887 20.1080086651
Fe 4.2879282633 47.3030572249 21.4752341382
Fe 5.6891124979 45.9256383006 20.039422145
Fe 7.1336537811 47.3346974435 21.4807156968
Fe 8.6209566163 45.9131049868 20.0807555872
Fe 10.0393639255 47.3603858089 21.5549745017
Fe 11.4359419132 45.9721430614 20.0742159364
Fe 12.8911399947 47.4115983465 21.5190923657
Fe 14.3562216998 45.943379654 20.1428648302
Fe 15.8271924849 47.3639154268 21.5185685118
Fe 17.1867069959 45.9200309849 20.1037999233
Fe 18.6027404472 47.3034776009 21.5185450186
Fe 20.0366954191 45.9522367831 20.0550049979
Fe 21.4891719642 47.3643284517 21.4970682281
Fe 23.0013126842 45.963174809 20.135772102
Fe 24.3888449969 47.3706679753 21.4894842929
Fe 25.8114962483 45.8885305719 20.1102995523
Fe 27.2927258158 47.3347112523 21.5376894995
Fe 28.7084290738 45.945008098 20.111753281
Fe 30.0992912519 47.3953192988 21.5617763508
Fe 31.5797781016 45.9054005445 20.1474038658
Fe 32.9481966468 47.2991944993 21.560914054
Fe 34.428987726 45.8783955419 20.1318605874
Fe 35.8344214924 47.4006670372 21.5193208885
Fe 37.2876830547 45.9621502962 20.0639636751
Fe 38.7171143112 47.3451672658 21.4944517042
Fe 40.1945244038 45.9770412748 20.1052750924
Fe 41.6401803115 47.3607978355 21.4996802311
Fe 43.0069172136 45.9105311424 20.1055342128
Fe 44.4575824767 47.3887074779 21.5077413651
Fe 45.9199900343 45.8831519942 20.070494834
Fe 47.3605899892 47.3650424437 21.5562956628
Fe 48.8365103951 45.8917440247 20.1003167217
Fe 50.2583701724 47.3450777485 21.4900145442
Fe 51.7076441608 45.9089680563 20.0957449989
Fe 53.1471266622 47.3817090055 21.5719045336
Fe 54.5275711767 45.9377178715 20.106795755
Fe 55.9952018502 47.3765673437 21.4950241866
Fe 57.3436355416 48.7856929583 20.0642176515
Fe 1.3858216317 50.1746464999 21.5468846113
Fe 2.890547842 48.7754167426 20.1460679248
Fe 4.2570985804 50.2104628921 21.560961454
Fe 5.7939119221 48.810323543 20.0734501271
Fe 7.2016266138 50.1677111179 21.5291007026
Fe 8.5964815255 48.7927994591 20.114974396
Fe 9.9965934632 50.2032359904 21.5107223126
Fe 11.460856897 48.765048355 20.1126529587
Fe 12.9042565119 50.2312239266 21.4814612224
Fe 14.337325373 48.7665938617 20.0502242736
Fe 15.8414173068 50.2625143718 21.4915842021
Fe 17.2186930008 48.7420797508 20.1329760824
Fe 18.6801080477 50.2635739793 21.5484023231
Fe 20.0698390777 48.8207707915 20.1104703068
Fe 21.5676883086 50.2281587666 21.5763983879
Fe 22.9757831855 48.8428952155 20.1063131062
Fe 24.4391946272 50.1939625595 21.5404171542
Fe 25.7806033829 48.7383928446 20.1102271858
Fe 27.2880956304 50.1857145061 21.5401097547
Fe 28.7028474614 48.7916517817 20.0520102024
Fe 30.1456221087 50.2028610817 21.5244852501
Fe 31.5191737111 48.7678225264 20.121443884
Fe 33.0508252185 50.2635729482 21.5770599232
Fe 34.4023368538 48.7728830645 20.1352543662
Fe 35.8904624414 50.2663892744 21.5468648347
Fe 37.2714630553 48.8400198293 20.1360591531
Fe 38.7306920981 50.2519683249 21.558981568
Fe 40.1580068011 48.8332904598 20.0579998409
Fe 41.6545699919 50.2676292145 21.4736122871
Fe 43.0891788194 48.8419512344 20.1172858296
Fe 44.5326130767 50.2632275645 21.533972349
Fe 45.8892898916 48.7892558093 20.0579958269
Fe 47.4034456141 50.2157239674 21.5070251801
Fe 48.7495272175 48.7574229625 20.037796679
Fe 50.2089442709 50.256571374 21.4774059622
Fe 51.6717910232 48.8359945963 20.0530201605
Fe 53.0918367175 50.1693988748 21.5564458446
Fe 54.5289652331 48.8087474463 20.0452625348
Fe 55.9832109903 50.2042545328 21.4800078685
Fe 57.3784574472 51.6967621429 20.0364563314
Fe 1.4128410354 53.1240935132 21.5783303774
Fe 2.8953028166 51.6135183359 20.0954012638
Fe 4.2858233104 53.0719838965 21.5284174853
Fe 5.7252331459 51.6599634033 20.0733227591
Fe 7.2040748157 53.0422687196 21.5232187447
Fe 8.562117339 51.648557376 20.136739343
Fe 10.0232395367 53.1339643523 21.4813835531
Fe 11.4876308328 51.7151269582 20.046569541
Fe 12.9542197673 53.1146212477 21.5348879511
Fe 14.3802685619 51.6335806602 20.1268609842
Fe 15.7622046744 53.0644732427 21.5110020064
Fe 17.1635724433 51.6217977621 20.0534254372
Fe 18.6021097845 53.1438646033 21.5417429849
Fe 20.0454072643 51.6221630113 20.1270998419
Fe 21.5409360951 53.0859345184 21.4685328053
Fe 22.9048307304 51.6314872224 20.0866604064
Fe 24.3407646016 53.0670462222 21.5792360168
Fe 25.852899089 51.7027681575 20.1217983514
Fe 27.2108289489 53.0732375731 21.5435199476
Fe 28.7114020862 51.6066545659 20.0515338953
Fe 30.1572360259 53.1076953885 21.5627044167
Fe 31.568488083 51.7163698774 20.0576273965
Fe 32.99337485 53.1227288705 21.4869263945
Fe 34.4922173528 51.6726068456 20.0649817761
Fe 35.83967973 53.0942389477 21.4942722112
Fe 37.3226092462 51.7022169585 20.0586376273
Fe 38.7002210178 53.0653888492 21.5106721533
Fe 40.2327623606 51.642340295 20.0869055421
Fe 41.6500379056 53.1459637808 21.5457113942
Fe 43.0708240853 51.6121229216 20.0822279671
Fe 44.5205859366 53.0641278339 21.5519449945
Fe 45.8656214921 51.6076849981 20.122831624
Fe 47.3567980828 53.0997150616 21.4905457297
Fe 48.8382060273 51.6338139788 20.094330978
Fe 50.1715801915 53.0966108124 21.5334705406
Fe 51.6685916214 51.6807235957 20.0842949935
Fe 53.0584695065 53.1039363257 21.5318195746
Fe 54.4749371408 51.7133353531 20.0687537911
Fe 55.910848231 53.0666043972 21.5009336762
Fe 0.0117702319 54.4740052083 20.0975231384
Fe 1.4011879239 55.9534141296 21.5477934733
Fe 2.8463477601 54.5857388737 20.1246138906
Fe 4.3496600142 55.9535722575 21.4726214879
Fe 5.7801862211 54.5537465233 20.0876117653
Fe 7.1202493805 55.9248740919 21.497313298
Fe 8.5734770523 54.5811605469 20.0788698766
Fe 10.004627304 55.9351520754 21.4758543181
Fe 11.4992666076 54.5726011133 20.0812853752
Fe 12.9473798806 55.9393894155 21.5223836237
Fe 14.3816407294 54.5621737552 20.1257107973
Fe 15.8423270563 55.977195489 21.4814333957
Fe 17.2460464828 54.5395142845 20.0846333241
Fe 18.6923329263 56.0110533469 21.5310119822
Fe 20.0634334995 54.5137543426 20.1048847449
Fe 21.4952890195 55.931307666 21.5332290383
Fe 22.9199852881 54.4874279076 20.0546485908
Fe 24.3537841878 55.9729906664 21.4925185635
Fe 25.7747650865 54.5055755112 20.1228412008
Fe 27.2463481545 56.0055578122 21.5474446799
Fe 28.7337786005 54.5838911468 20.1299412573
Fe 30.1843962936 55.9433948411 21.5014740417
Fe 31.5480789303 54.5537090346 20.082198027
Fe 33.0594976709 55.9837969258 21.5572355905
Fe 34.3952255897 54.5195948853 20.0915769967
Fe 35.8488699541 56.001273713 21.4809326755
Fe 37.2762992107 54.5705223335 20.0941132194
Fe 38.7301553846 55.9455558177 21.5813761346
Fe 40.1852506323 54.5338711959 20.0594499998
Fe 41.6272443378 55.9102287748 21.5414600284
Fe 43.0966456552 54.55689012 20.1133246604
Fe 44.5291825703 55.9195816593 21.5195647255
Fe 45.8906033853 54.5326353536 20.0488621909
Fe 47.3325074184 55.9183199137 21.4876626787
Fe 48.764217088 54.5161041427 20.0550048608
Fe 50.2000275387 55.9246438183 21.5202800201
Fe 51.6334047332 54.4785357771 20.0835010437
Fe 53.0723291081 56.0066696308 21.5279029471
Fe 54.5641772661 54.5664458376 20.1294068336
Fe 55.9344107199 55.9956660072 21.5343772209
Fe 5.19402554e-04 0.0372509832 22.9602464091
Fe 1.4845367468 1.4757112957 24.3728907735
Fe 2.8670666884 57.3723787728 22.9749570088
Fe 4.2720145052 1.4305409137 24.4102022815
Fe 5.7556210575 0.0499590608 22.9770928141
Fe 7.1802985844 1.3811162403 24.4213695921
Fe 8.5786375205 0.0074182811 23.0111368327
Fe 10.06400814 1.4057785762 24.3776453731
Fe 11.4418932445 0.009829501 22.9252372834
Fe 12.8960580042 1.4721924446 24.4521363634
Fe 14.3340262778 0.0495978704 22.9250803186
Fe 15.8325448405 1.4166074442 24.3409354174
Fe 17.2048699599 57.3622665586 23.0011946079
Fe 18.6916717317 1.4632579206 24.4220920291
Fe 20.0497636794 0.0215351042 22.941096758
Fe 21.5576295185 1.3870206343 24.403437255
Fe 22.9999470148 0.0471445512 22.9372646268
Fe 24.3986709159 1.4754781628 24.3793090058
Fe 25.8616128301 0.01562213 22.923374968
Fe 27.2446227034 1.4744659115 24.3911000533
Fe 28.7381287153 57.3720020203 22.9806218342
Fe 30.1689357781 1.3869061373 24.408091943
Fe 31.6132154576 5.90399354e-04 22.9032773075
Fe 32.9578391528 1.4759787518 24.4087716441
Fe 34.4128991099 57.3978978705 22.9392507889
Fe 35.9247412212 1.4341534076 24.3727627934
Fe 37.3152964671 0.0317077099 22.9803595656
Fe 38.7190390785 1.4877968022 24.4161300632
Fe 40.2340022988 57.3459097764 22.9805048979
Fe 41.6212413814 1.3962390827 24.3810342073
Fe 43.0090475711 57.3754730799 22.9436451935
Fe 44.5250279745 1.3911394592 24.4465683311
Fe 45.8815487725 0.0262236805 22.9675845256
Fe 47.3167178236 1.4199959281 24.4220722027
Fe 48.7339049705 57.3646805689 22.952594203
Fe 50.2490282639 1.4696593782 24.3986718994
Fe 51.6184160051 57.3882720838 22.9441124146
Fe 53.0808307193 1.4233386463 24.3426956482
Fe 54.511118839 57.3759050179 22.9659345232
Fe 55.9775853333 1.3927341119 24.3390865166
Fe 0.0368754197 2.8221916456 22.9368920877
Fe 1.3870265569 4.3395668242 24.3646768998
Fe 2.890007139 2.8735699089 22.953171197
Fe 4.2604167656 4.3260395376 24.3868193515
Fe 5.692892279 2.8483188292 22.9234761827
Fe 7.2174631498 4.3338930109 24.4347458275
Fe 8.6307214935 2.91156056 23.0059624153
Fe 10.0251123316 4.2925255283 24.3606471899
Fe 11.5081325399 2.8829319457 22.9532769993
Fe 12.8690012944 4.319378357 24.4351461426
Fe 14.3715201738 2.9039161054 22.981508785
Fe 15.8195417322 4.2626833218 24.3934610458
Fe 17.2125651481 2.8667052868 22.9095124127
Fe 18.643633118 4.2949922149 24.444233764
Fe 20.1198552849 2.8953838438 22.9539243888
Fe 21.5783319197 4.3288422633 24.4394984913
Fe 23.0137468197 2.8663406506 22.9334531116
Fe 24.3840044003 4.3598843479 24.4281601674
Fe 25.8753667782 2.8800483891 22.9617235055
Fe 27.2924812363 4.352370889 24.4352839652
Fe 28.6529014014 2.8953002072 22.9905884771
Fe 30.1586118801 4.3168554981 24.448626562
Fe 31.5383769251 2.8747774585 22.9555127736
Fe 33.0428918708 4.2612139637 24.4517301318
Fe 34.4195697559 2.8281377094 22.9646932776
Fe 35.8838294267 4.3351734688 24.4425566552
Fe 37.3532704707 2.8541337554 22.9074901952
Fe 38.7088426143 4.2520250664 24.3624531671
Fe 40.1985609701 2.8568261153 22.9462425868
Fe 41.6326029212 4.3445591523 24.3570542579
Fe 43.0372376271 2.869647612 22.9447998242
Fe 44.4544220947 4.3041612542 24.4466312319
Fe 45.880537153 2.9126718977 22.9244441145
Fe 47.4032917016 4.2919264544 24.3728525462
Fe 48.7772845129 2.8419806233 22.933655457
Fe 50.2090531797 4.2659458273 24.4057030175
Fe 51.6978369309 2.8751363801 22.9318667245
Fe 53.1031449952 4.2855595917 24.4117963948
Fe 54.5108135911 2.8807701395 23.0112626939
Fe 55.9265960207 4.2907744663 24.3755329872
Fe 57.3639952091 5.7680394283 23.0110549745
Fe 1.3951882962 7.2108950226 24.4066907676
Fe 2.890440677 5.6950203275 22.9490163733
Fe 4.3516993716 7.2231794376 24.417121046
Fe 5.776744108 5.6850704023 22.9928064826
Fe 7.2261874116 7.151873739 24.4315944056
Fe 8.6640003511 5.7883688778 23.0025976053
Fe 10.0076997901 7.1343245291 24.3810848881
Fe 11.5118564742 5.7827386129 22.965278196
Fe 12.9053751901 7.1885087549 24.3507013035
Fe 14.3879916843 5.7699018545 22.9054152853
Fe 15.7449271709 7.1336643606 24.3761855193
Fe 17.2669601265 5.7078985286 22.9509821148
Fe 18.6354644947 7.2229994609 24.4110750992
Fe 20.0874527868 5.7279907617 22.967421929
Fe 21.5119944724 7.1510487837 24.4459453803
Fe 23.0131781875 5.7896938235 23.0116480112
Fe 24.4309058149 7.2211682044 24.3540226038
Fe 25.8790415684 5.7814552626 22.9608652645
Fe 27.3210142314 7.1615279259 24.4063836686
Fe 28.6585421291 5.7037422916 22.9640023562
Fe 30.1648075959 7.2235299552 24.3839755668
Fe 31.6151470445 5.7377637435 22.9750246599
Fe 33.0617077053 7.1753008671 24.4465707204
Fe 34.3930030823 5.6919914687 22.9763957883
Fe 35.8668501882 7.1391695779 24.4491180439
Fe 37.3600019919 5.7654589525 22.9592774846
Fe 38.7797776423 7.1931662412 24.4175671075
Fe 40.2370631571 5.7594925686 22.9778388718
Fe 41.6310673695 7.1559896093 24.4492292102
Fe 43.0466732587 5.746817352 23.0019778035
Fe 44.4291810297 7.1943439508 24.4336234243
Fe 45.9108858471 5.7233441029 22.984906401
Fe 47.3041933879 7.1542968969 24.338287663
Fe 48.8465038626 5.7426214152 22.9372714338
Fe 50.2593751766 7.1709313875 24.4077224621
Fe 51.624035352 5.7725413252 22.9359137163
Fe 53.0631030744 7.1899582625 24.3540795652
Fe 54.5234273498 5.7654494223 22.9992004953
Fe 55.9296964198 7.1616327388 24.4402763486
Fe 57.3948297008 8.5999047235 22.9456067202
Fe 1.4537273183 10.0348637965 24.3612751791
Fe 2.8377640143 8.5799610495 23.0176864582
Fe 4.307366198 10.0452073418 24.4281974773
Fe 5.7250192264 8.6345954657 22.9825089433
Fe 7.2148740554 10.0610787958 24.426779326
Fe 8.6202660997 8.5961140859 22.9997943352
Fe 10.0800203655 9.9883160848 24.3647472376
Fe 11.4636463239 8.6556159138 22.9950680825
Fe 12.8577025623 10.0948731378 24.3931678799
Fe 14.38248579 8.6040655236 22.9295327568
Fe 15.7818620325 9.9892674652 24.3523451766
Fe 17.1916897068 8.5533713841 22.9393436188
Fe 18.6766101899 10.0454451989 24.3527462131
Fe 20.0414802351 8.619076583 23.0080236254
Fe 21.4747709014 10.0226001454 24.3699099702
Fe 22.9068204052 8.5545905463 22.9197085529
Fe 24.3429171852 10.0689896624 24.36841036
Fe 25.8656700171 8.5700876069 22.9818512686
Fe 27.2229265122 10.0029574899 24.3750141574
Fe 28.7344882344 8.5716191166 22.9252993471
Fe 30.0990879575 10.0412429434 24.4061602047
Fe 31.6022350442 8.5886665842 22.9337673936
Fe 33.0110070019 10.0327722844 24.3906342583
Fe 34.4651204922 8.6259581168 22.991482888
Fe 35.8247045043 10.0637798715 24.4019106275
Fe 37.2561713981 8.5782396406 22.9523112802
Fe 38.705769608 10.040658785 24.4525465074
Fe 40.2357883218 8.5571279074 22.9790478032
Fe 41.5661991786 10.0157453313 24.3753315972
Fe 43.0103566244 8.6392658477 22.9173388449
Fe 44.4620807371 10.0905619778 24.3490027726
Fe 45.8660794559 8.5849451351 23.0123134894
Fe 47.3038914511 9.9967188647 24.4017441182
Fe 48.8224944391 8.5760044448 22.9377187674
Fe 50.1683641197 10.0682571592 24.4021713196
Fe 51.6718172311 8.5932670724 22.9527328627
Fe 53.0645079865 10.0579954682 24.3835468775
Fe 54.5197306777 8.5953861615 22.9062382873
Fe 55.9708158945 10.0955759743 24.3897160676
Fe 57.3725165658 11.4689739034 22.9229931247
Fe 1.4453295648 12.904044493 24.4363601662
Fe 2.8165898124 11.449685202 22.9390956614
Fe 4.2916551138 12.9662110965 24.3628150666
Fe 5.7226415903 11.4490660405 22.9436355389
Fe 7.1188196755 12.9046304118 24.3508126377
Fe 8.5610804573 11.4244606315 22.9057876985
Fe 10.0732871107 12.8961071266 24.3992987652
Fe 11.4386187753 11.4911694459 22.9373940864
Fe 12.8876936654 12.9477967355 24.3531103643
Fe 14.2969919044 11.4588280959 22.9132394419
Fe 15.7555617016 12.8859585165 24.4478087986
Fe 17.2490457569 11.4336602539 22.9831078323
Fe 18.6326994563 12.8945620157 24.3943931078
Fe 20.1247558853 11.4802965921 22.9710525385
Fe 21.4996434616 12.9312486531 24.4335426308
Fe 22.9277647975 11.5211614137 22.9213546724
Fe 24.3530823235 12.945629016 24.425548459
Fe 25.7962045205 11.5248599919 22.9096547373
Fe 27.2994673241 12.8726674615 24.3789439611
Fe 28.7247461594 11.4810203327 22.9473905959
Fe 30.1208106347 12.8678067209 24.4255302312
Fe 31.590277149 11.4824853685 22.9381252799
Fe 32.9609502639 12.9639757151 24.4241737825
Fe 34.4898486125 11.4975382983 22.9768885815
Fe 35.8580089286 12.9240211103 24.3591502095
Fe 37.3402616299 11.424826714 22.9347470242
Fe 38.7259067913 12.9586489885 24.4235812587
Fe 40.1537192082 11.4971887901 22.9524212565
Fe 41.6632654521 12.8665690969 24.3654220236
Fe 43.0808473262 11.4682722832 23.0068246686
Fe 44.5427036101 12.8790630446 24.4032431193
Fe 45.9702786863 11.5240305874 22.933885831
Fe 47.3368758509 12.934146105 24.3538139186
Fe 48.7747025561 11.5063173658 22.9815394379
Fe 50.2616547704 12.9123485467 24.4012175114
Fe 51.6877619871 11.4648131277 22.9212579482
Fe 53.126803618 12.9573591658 24.3734308799
Fe 54.5018633215 11.477655073 22.9410221715
Fe 55.9636687724 12.8599208495 24.4214321601
Fe 57.3881972743 14.3745070427 22.9212247229
Fe 1.4112406626 15.8194137412 24.3589265564
Fe 2.9017293753 14.3739202495 22.9056216159
Fe 4.34734776 15.8073757823 24.4056658609
Fe 5.6877087758 14.3828915243 22.9366944705
Fe 7.1266645869 15.8033148184 24.3578576935
Fe 8.6492040025 14.3914213907 23.0129062387
Fe 10.0734568414 15.8311839097 24.346606896
Fe 11.4931493133 14.4060860519 23.0152699534
Fe 12.9091438506 15.8283581252 24.3595052516
Fe 14.3881286272 14.3844413666 22.959268681
Fe 15.7648630088 15.8356098541 24.3945278845
Fe 17.2314617261 14.401604692 22.9099660134
Fe 18.6302138083 15.7426493995 24.3904164845
Fe 20.1375128501 14.3264825845 22.9287424997
Fe 21.5689570743 15.7950881681 24.442030599
Fe 22.9247309238 14.3910793101 22.9901580787
Fe 24.4319576238 15.8025472246 24.3567762957
Fe 25.7794747897 14.3157172908 22.9762782363
Fe 27.2912020455 15.7469691107 24.412597666
Fe 28.6795319024 14.3867170964 23.0002561313
Fe 30.1825941748 15.7554506939 24.4382592476
Fe 31.618508425 14.3963461355 22.9506304647
Fe 32.9525733676 15.7513347415 24.3481968511
Fe 34.3830420145 14.3002350298 23.001624609
Fe 35.8331516595 15.7841201477 24.3667560747
Fe 37.2612354174 14.3793867835 22.9193687768
Fe 38.7293195513 15.8353490553 24.3658738834
Fe 40.1826043692 14.3603512367 23.0103098463
Fe 41.6017596926 15.7287531142 24.3941322015
Fe 43.101955619 14.3209078266 22.9757812472
Fe 44.4538994228 15.778598654 24.4286802695
Fe 45.9580737871 14.3153771025 22.9393186953
Fe 47.3370290328 15.742741766 24.4206161485
Fe 48.7968084864 14.2928733752 22.9812107202
Fe 50.2703461955 15.7577164725 24.405933697
Fe 51.6862263053 14.3291732601 22.9123972281
Fe 53.1162836883 15.8142629258 24.4079966151
Fe 54.4852231683 14.3011548959 22.9182719806
Fe 55.9951507118 15.7320468372 24.4060934427
Fe 57.3503923602 17.1702783793 22.9452669308
Fe 1.4230405443 18.6399032719 24.3907571625
Fe 2.8422042938 17.2739071697 22.9857842775
Fe 4.3362317104 18.6425478761 24.4013434625
Fe 5.7416043944 17.2228756645 22.9870544569
Fe 7.2067636898 18.6462417267 24.4405481368
Fe 8.5705413973 17.2372610518 22.9076001508
Fe 10.0423438801 18.6131070215 24.4445984461
Fe 11.4403319157 17.2370827343 22.9781995089
Fe 12.9624744909 18.6409656706 24.4011905714
Fe 14.4059985769 17.1626246823 23.0034050338
Fe 15.7847992016 18.6841131311 24.3622483987
Fe 17.1871471263 17.1707967815 22.9668484659
Fe 18.6750108982 18.7030761556 24.3381428924
Fe 20.1435481182 17.1853040932 23.0017652533
Fe 21.5049581427 18.7118654538 24.4165445084
Fe 22.9727188084 17.196681735 22.913957081
Fe 24.4030263272 18.670533174 24.4207288734
Fe 25.8398152093 17.1743558675 22.9333514173
Fe 27.2437268683 18.695989034 24.341488297
Fe 28.7256540339 17.1659672449 23.0023721752
Fe 30.1279951555 18.6976140414 24.3451238693
Fe 31.5137164972 17.1647177592 23.009326154
Fe 33.0370563341 18.6273020345 24.3740149534
Fe 34.4918468813 17.1866506388 22.9282320206
Fe 35.9227919974 18.6965196851 24.4132222502
Fe 37.348641345 17.2134930663 22.9592689483
Fe 38.7229926982 18.6003104598 24.4471222055
Fe 40.2058842273 17.1886031341 23.0050257254
Fe 41.6512152407 18.6632967896 24.3827366046
Fe 43.0266797583 17.248877924 22.9456098915
Fe 44.538284684 18.70821272 24.3434156276
Fe 45.9272469061 17.2759676036 23.0058236406
Fe 47.3031305372 18.6404722316 24.382191702
Fe 48.8284216619 17.2251513635 22.9926633255
Fe 50.1826856573 18.6748366288 24.3897162956
Fe 51.6722617438 17.2137962329 22.983144304
Fe 53.0391463155 18.63996089 24.3630247461
Fe 54.5723627889 17.2314132084 22.9528532929
Fe 55.9648569338 18.6705083153 24.4511683417
Fe 57.3802773236 20.0749600308 22.9540747972
Fe 1.3860452169 21.4735721164 24.3733342004
Fe 2.8840853407 20.0514188514 22.9172769352
Fe 4.2951997936 21.5712895709 24.4250464746
Fe 5.6908538988 20.1411297595 22.9650338551
Fe 7.1519092062 21.4765968077 24.4181601795
Fe 8.6576161697 20.1366336118 22.9577576691
Fe 10.0915597097 21.4858730235 24.3693783214
Fe 11.5017003137 20.0588236069 22.9207444211
Fe 12.8601174669 21.5349409568 24.4089642091
Fe 14.3713546775 20.08195274 22.9414879961
Fe 15.8411643898 21.5052716514 24.4312743065
Fe 17.1640776156 20.1107139745 22.9949830122
Fe 18.688844093 21.5540779055 24.3555557139
Fe 20.0454907056 20.0403409808 22.9593372282
Fe 21.5034916143 21.5152806635 24.4506297795
Fe 22.9120205469 20.1127100862 22.9075160529
Fe 24.361542579 21.5380530243 24.388400279
Fe 25.883131688 20.0904106848 22.9349290757
Fe 27.246763678 21.5571812851 24.3378849689
Fe 28.7054986767 20.1116717376 22.9734720627
Fe 30.0850020952 21.5625697308 24.3465031622
Fe 31.5573860139 20.1356430768 22.9364190159
Fe 33.0339041119 21.5008368962 24.4209914912
Fe 34.4940995609 20.0706961312 23.0060777159
Fe 35.8533320375 21.5217507738 24.4395039204
Fe 37.2728499064 20.0695590083 22.9409248014
Fe 38.7753692647 21.5607372499 24.4223412786
Fe 40.1238659308 20.1297496938 22.9754279341
Fe 41.5743544048 21.480835375 24.391536033
Fe 43.0075829843 20.0987847815 22.9312735369
Fe 44.5273986664 21.5719770375 24.3966604723
Fe 45.8863834342 20.0901815302 22.9041122256
Fe 47.3016899664 21.564928466 24.3851270466
Fe 48.8013848417 20.1042886583 22.9040485219
Fe 50.2079679122 21.5518513109 24.4056012843
Fe 51.6379319578 20.1343095384 22.9610045079
Fe 53.0894752655 21.5131886458 24.3395699137
Fe 54.5257851115 20.1426303812 22.9801990784
Fe 55.9418810569 21.5052866755 24.405640629
Fe 0.047670746 22.9318175495 22.9566051263
Fe 1.4745700645 24.428044494 24.3856265734
Fe 2.8282861551 22.921778959 22.9606195376
Fe 4.2838435308 24.4274494261 24.4198128483
Fe 5.7374586463 22.9861553484 22.9152452607
Fe 7.1971874453 24.3793880301 24.3468328715
Fe 8.6027599549 22.9831097926 22.9324144946
Fe 10.0031970601 24.4245754629 24.4191790667
Fe 11.4331891294 22.9786150658 22.9685055394
Fe 12.9056575013 24.3485545241 24.3385813934
Fe 14.320630254 22.9305819162 22.9454614887
Fe 15.833814926 24.4456041114 24.4503094381
Fe 17.2590722249 22.916827378 22.9758478289
Fe 18.6945601302 24.4131781948 24.3950626559
Fe 20.0372190325 22.98600314 22.9529913375
Fe 21.557691996 24.4135986807 24.3404649286
Fe 22.997232687 22.9800800322 22.9410061045
Fe 24.4199054622 24.3637839575 24.4170795535
Fe 25.8127506957 22.9480687557 22.9834371974
Fe 27.238353983 24.4473603229 24.3590640379
Fe 28.7502504818 22.93537827 22.9929010783
Fe 30.1036203103 24.4527391331 24.3725594141
Fe 31.5956342984 22.9604258276 22.9170946622
Fe 32.9774528143 24.4088520821 24.435792883
Fe 34.4512449343 22.9879445268 22.9807715464
Fe 35.849096588 24.4307559078 24.4030675988
Fe 37.3494730052 22.9827985866 22.9611566429
Fe 38.7700513302 24.3590157976 24.4326422003
Fe 40.2055374616 22.9783008581 22.9110774535
Fe 41.6184221964 24.3846553724 24.3579802798
Fe 43.0387587356 22.9541041318 22.9034644741
Fe 44.4710470122 24.4014847431 24.408039064
Fe 45.9096094473 22.9988371365 23.0001482487
Fe 47.3010323977 24.3797407229 24.3494306638
Fe 48.7910411039 22.9051444235 22.9961345254
Fe 50.2292673544 24.3885758928 24.4439509001
Fe 51.7050885006 22.9721011376 22.9801964009
Fe 53.0414214815 24.3971661909 24.3589524519
Fe 54.5697146704 22.9398582679 22.9649293932
Fe 55.9214851546 24.4369222526 24.445193122
Fe 57.3905529291 25.7884358268 22.9246487075
Fe 1.4403346705 27.2114262266 24.4327061372
Fe 2.9019938322 25.8660803992 22.9715424024
Fe 4.3478094587 27.2366653084 24.425175389
Fe 5.7776343529 25.7980956574 22.9211050838
Fe 7.2221586365 27.2936013103 24.414192359
Fe 8.5971112428 25.8540971426 22.9411858849
Fe 10.0582372472 27.209709234 24.3791988522
Fe 11.5351070243 25.8376063553 22.9633082391
Fe 12.9185321064 27.2969078977 24.3476869825
Fe 14.3229041069 25.78811811 22.9398710168
Fe 15.7888180358 27.2194827859 24.3760500273
Fe 17.2216955985 25.8159906223 22.9474374747
Fe 18.7080132137 27.2568103446 24.4514196468
Fe 20.1178980452 25.8259641243 22.9040825443
Fe 21.5265950986 27.2628365691 24.4283757436
Fe 22.9642221505 25.8183616907 22.9123486503
Fe 24.4347782811 27.3136951308 24.4364301098
Fe 25.79692222 25.8712402378 22.9323847374
Fe 27.257956498 27.25753685 24.3594284775
Fe 28.6469445729 25.8876783291 22.9753688718
Fe 30.180914689 27.2259334271 24.3508483354
Fe 31.5469414733 25.8109026072 23.0152435419
Fe 33.0337710634 27.2496625423 24.3931091245
Fe 34.4806060962 25.7761476879 22.9175431408
Fe 35.9080605752 27.296828218 24.4184252854
Fe 37.3444243324 25.7855790649 22.9362992525
Fe 38.7804016915 27.2484558334 24.3651104072
Fe 40.1659935513 25.7983315782 22.9582899404
Fe 41.5790519969 27.3063089921 24.4519790093
Fe 43.0161297668 25.8822117023 22.9496553186
Fe 44.464990167 27.2302515038 24.4350599293
Fe 45.9459942897 25.8444153213 22.9028850631
Fe 47.338122441 27.2242785964 24.4333435977
Fe 48.8461887621 25.8782569763 22.9206215904
Fe 50.2100085026 27.2088275643 24.3948599712
Fe 51.6309940985 25.8070841676 22.9574529381
Fe 53.0599754047 27.3216958859 24.3726527721
Fe 54.5471241813 25.8632022849 22.9577318222
Fe 55.9252166031 27.2851119192 24.340622698
Fe 57.3991099857 28.6548188668 22.9358008733
Fe 1.451710828 30.1878367579 24.3559963567
Fe 2.8151241565 28.6979886997 22.9620340275
Fe 4.2697850449 30.18616613 24.4077849262
Fe 5.7325640087 28.6588139427 22.9954895781
Fe 7.1265805692 30.1742256962 24.410823789
Fe 8.6239067756 28.7389395258 23.0016992863
Fe 10.067657241 30.1034105556 24.3959162149
Fe 11.4459715192 28.6620120552 22.9173117745
Fe 12.9463349777 30.1001756954 24.37303188
Fe 14.4069790655 28.6649456406 23.0051239578
Fe 15.7819503055 30.1539577571 24.4449768043
Fe 17.2286935025 28.6771656501 22.9270752332
Fe 18.6048046098 30.1151706808 24.4227521463
Fe 20.0682606274 28.6438436402 22.9652927538
Fe 21.5596207314 30.14685859 24.4052187014
Fe 23.0016375167 28.7166106771 22.9943009699
Fe 24.3541408265 30.1611799806 24.4094145064
Fe 25.8263724465 28.6507865167 22.9449273058
Fe 27.3010852183 30.1868389985 24.3887502826
Fe 28.7282502889 28.6975506722 22.9206891251
Fe 30.1412659873 30.1268185358 24.346384036
Fe 31.6039558568 28.7325234475 22.9812490639
Fe 33.0547938427 30.1741133594 24.4425856227
Fe 34.4399703945 28.7571787288 22.9982004027
Fe 35.928338211 30.1665825713 24.4453039916
Fe 37.2769005152 28.7402154713 22.9650518388
Fe 38.7929338082 30.0863329208 24.4497782728
Fe 40.2061059269 28.7218875607 22.9075449022
Fe 41.590243458 30.1176188233 24.3554952871
Fe 42.9936309469 28.659621342 22.9532343014
Fe 44.451104044 30.1033916131 24.4318943787
Fe 45.971061714 28.6609149361 22.9785856172
Fe 47.3278393702 30.1077524542 24.3701413748
Fe 48.8300852447 28.681106125 22.9575147404
Fe 50.2760247512 30.1806601954 24.4420977249
Fe 51.6440917671 28.7236072789 22.9936385911
Fe 53.0956106284 30.0952062018 24.3932903624
Fe 54.5270256223 28.7329483089 22.9892498573
Fe 55.9892669044 30.1672377833 24.3687203044
Fe 0.0575493496 31.5200922606 22.9065420955
Fe 1.4089054894 33.0455573034 24.33874924
Fe 2.8635629067 31.6141741188 22.9689939467
Fe 4.2593181939 33.0225905675 24.3772595103
Fe 5.7919916601 31.5752635821 22.9943002083
Fe 7.2143387843 33.0521817462 24.440926034
Fe 8.6494183166 31.52120691 22.9750210389
Fe 10.0727032199 33.0178235296 24.4281973922
Fe 11.4842450213 31.6275192506 22.9225601105
Fe 12.9661021017 32.9661034861 24.3405070677
Fe 14.3057921439 31.5499656369 23.000238021
Fe 15.7780586367 32.9601066838 24.4252373202
Fe 17.2120364503 31.5409534956 23.0025933039
Fe 18.6447337681 33.0051337145 24.4159586097
Fe 20.0462630894 31.5807967677 22.9637165347
Fe 21.4722578759 33.0161110951 24.4338286347
Fe 22.9805979159 31.5184925148 22.9692359475
Fe 24.3985406024 32.9536942938 24.3971927799
Fe 25.7934272484 31.5224655809 22.9205758813
Fe 27.3160292899 33.0045832462 24.4127224003
Fe 28.7335893976 31.5645003842 22.9402842029
Fe 30.1044460735 33.040340229 24.3381149277
Fe 31.5608077967 31.5425696907 22.983002352
Fe 32.9611079331 33.0157699641 24.3737275485
Fe 34.4676306753 31.5125719857 22.9191199665
Fe 35.8622991393 33.0320279161 24.3533472725
Fe 37.3670631202 31.5229897402 22.9482502439
Fe 38.7075862263 33.0601760542 24.4412256427
Fe 40.20222049 31.5904987584 22.9903825422
Fe 41.6464573128 32.9558518244 24.4503539542
Fe 43.0201321452 31.5229190577 22.9795990219
Fe 44.5381843851 32.9838185502 24.3520005905
Fe 45.9303060538 31.601101811 22.9649857356
Fe 47.3236430877 33.0430585887 24.3631280306
Fe 48.7629195952 31.5938633924 22.9026261822
Fe 50.244928603 33.0127387141 24.3667526285
Fe 51.6494578665 31.5453276855 22.964081498
Fe 53.0388440981 32.9790363534 24.4099501693
Fe 54.5085068638 31.6011343788 22.9501764245
Fe 55.9448900779 32.9951006729 24.3403039051
Fe 57.3918011372 34.487374213 23.0019216323
Fe 1.4047098464 35.8777382617 24.4515612709
Fe 2.8970268021 34.47959694 22.9180617238
Fe 4.3293905224 35.9153852234 24.3739652499
Fe 5.7537583631 34.4383246971 22.9424516545
Fe 7.1822546578 35.8310110673 24.4499303976
Fe 8.6050921389 34.3897571886 22.9105350202
Fe 10.0324676603 35.8856358596 24.3654411864
Fe 11.4667705334 34.4851386449 22.9030168733
Fe 12.9246534315 35.8368242706 24.3408041421
Fe 14.2986715469 34.4159708836 22.9346432136
Fe 15.8010347563 35.8982904082 24.4373489932
Fe 17.1801090119 34.4914084911 22.9250726136
Fe 18.6117653431 35.9092346964 24.4009805268
Fe 20.046005962 34.41374549 22.9082240136
Fe 21.4877647934 35.8990440088 24.4435688128
Fe 22.9435608128 34.420627055 22.9789229098
Fe 24.3561861866 35.8579370738 24.4303318721
Fe 25.784728937 34.4729913895 23.0037402713
Fe 27.2287905544 35.8452635981 24.4244854895
Fe 28.6923163418 34.4572298211 23.0153965572
Fe 30.1203791806 35.8914038067 24.3931019369
Fe 31.6116733173 34.3904064373 22.9506779266
Fe 32.9966568057 35.9055427432 24.4164533917
Fe 34.4428113537 34.4116688854 22.934295301
Fe 35.8830854473 35.8942794239 24.4353571393
Fe 37.2956600555 34.4075433183 22.9743979916
Fe 38.6972960897 35.9100111438 24.3531878745
Fe 40.1706848317 34.477981327 22.9564752614
Fe 41.6606995529 35.8265570321 24.3778241754
Fe 43.024071878 34.4052069068 22.9707174943
Fe 44.4675817071 35.8900421501 24.3487207158
Fe 45.9274525679 34.4692273183 23.0034942923
Fe 47.3643537343 35.9002135576 24.3965692108
Fe 48.7477700229 34.4885866989 22.9373989196
Fe 50.2731361438 35.8710164127 24.3916230956
Fe 51.6973881147 34.4257320125 22.9589333347
Fe 53.0654964801 35.8950570776 24.4219790608
Fe 54.5055146638 34.4640810054 22.9584599207
Fe 55.9938277404 35.889471857 24.3892675701
Fe 57.3490022457 37.366197743 22.9696250927
Fe 1.4823976319 38.7975776897 24.3642718352
Fe 2.906320834 37.2770325359 22.9212624839
Fe 4.3148689465 38.6888771804 24.345682906
Fe 5.6838567259 37.357570519 23.0097442734
Fe 7.2153336149 38.7821254524 24.3803774508
Fe 8.6055914227 37.2742243971 22.9245996724
Fe 10.0566384787 38.7721398714 24.3492485456
Fe 11.4704440332 37.3135226349 22.9620709774
Fe 12.9329752802 38.7803203297 24.3406502628
Fe 14.4019845974 37.3086759674 22.9742846883
Fe 15.7881767391 38.7312367469 24.440452041
Fe 17.2231340058 37.3380765834 22.9118290766
Fe 18.6981823429 38.7738105175 24.4471782842
Fe 20.0472309497 37.3626798069 22.9299546513
Fe 21.4948144243 38.7442011175 24.4186246877
Fe 22.9185621671 37.2638289236 22.9396391143
Fe 24.4371210206 38.7945090084 24.3874536845
Fe 25.8106893721 37.3084790591 22.9089205742
Fe 27.2889705822 38.7497745417 24.3384181635
Fe 28.7524909371 37.2910159516 23.0007516138
Fe 30.1001836051 38.7361923128 24.3958873192
Fe 31.5848943324 37.3586950247 22.9202458251
Fe 33.0019547706 38.7036094313 24.3874359291
Fe 34.4375215964 37.2974901908 22.9701487498
Fe 35.9293470964 38.7491060613 24.4247066335
Fe 37.3667331672 37.3542057794 22.9317483354
Fe 38.7353448563 38.7670668241 24.3432229554
Fe 40.2124085876 37.3403185223 23.0016200254
Fe 41.611832435 38.7992721606 24.4045938524
Fe 43.0997490169 37.3248905258 22.9543304452
Fe 44.5018737038 38.7131533388 24.3376779778
Fe 45.9417830556 37.3314945138 22.9319678556
Fe 47.340875985 38.7045014732 24.402435039
Fe 48.752634805 37.2677092333 22.9453402616
Fe 50.1984245489 38.773758811 24.355172988
Fe 51.6284857413 37.3034639122 22.9974488282
Fe 53.0494159742 38.7741904752 24.4210965385
Fe 54.527897019 37.3004115353 22.9097762537
Fe 55.9166761746 38.7115326574 24.4047696912
Fe 0.0079734433 40.1312939213 22.9971264943
Fe 1.3970589162 41.6697947537 24.3825159147
Fe 2.8126943806 40.2263673893 23.0138738276
Fe 4.331911663 41.579228327 24.4248094769
Fe 5.766510077 40.1838992892 22.9687208427
Fe 7.2218934641 41.6444000381 24.436936486
Fe 8.6368066318 40.1591209764 22.9818005221
Fe 10.0391834836 41.6178368189 24.4215398376
Fe 11.4995047497 40.1316558971 22.9506578937
Fe 12.9276316556 41.5718351531 24.4088821017
Fe 14.4023171183 40.1838458715 22.960903773
Fe 15.7934907915 41.5789413417 24.4148509136
Fe 17.2560378404 40.1745506033 22.9672636533
Fe 18.6517709947 41.5955603595 24.4325783364
Fe 20.0621818881 40.1727968826 22.9186093405
Fe 21.5182811527 41.566627591 24.4236332822
Fe 22.9248095904 40.2193669357 22.9623815506
Fe 24.3450231532 41.5683593913 24.4044766513
Fe 25.8797239712 40.2232282459 22.9460739609
Fe 27.2788807242 41.6324614825 24.376882098
Fe 28.7140200185 40.216682131 22.9113938905
Fe 30.1685263524 41.6606466112 24.3968607614
Fe 31.5312648968 40.1546186423 22.971770635
Fe 33.030274014 41.6313157221 24.412132311
Fe 34.4076024461 40.2245081345 22.9132961321
Fe 35.8543975287 41.6218303224 24.3550046983
Fe 37.2673620057 40.1498084311 22.9232315095
Fe 38.7056159548 41.570424737 24.3443591863
Fe 40.2260703519 40.1469889248 22.9895538503
Fe 41.6350210553 41.6400513503 24.4280384727
Fe 43.0517579793 40.1818036079 22.9194918065
Fe 44.5064238738 41.5776057813 24.401516579
Fe 45.9607940957 40.1921129409 22.9705811625
Fe 47.3452722555 41.5582805947 24.3475747079
Fe 48.7550936104 40.2087093579 22.9984397375
Fe 50.2349118193 41.5722404537 24.366291447
Fe 51.643067302 40.2277518674 22.9535698379
Fe 53.0768953373 41.611305285 24.3592908399
Fe 54.4804349078 40.1744216437 22.9416221769
Fe 55.9549369896 41.598925821 24.415620921
Fe 57.392351238 43.0943700396 22.9604289828
Fe 1.4316590263 44.4372917616 24.4268045442
Fe 2.8637449079 43.0833068497 22.9722114786
Fe 4.32844043 44.4532420216 24.3910930641
Fe 5.781010445 43.019676922 22.982599246
Fe 7.1604871404 44.4975087623 24.3862077517
Fe 8.6218186645 43.0543535703 22.9919128318
Fe 9.9927731901 44.5285682157 24.4108534129
Fe 11.4959331486 43.0015319604 22.9258246811
Fe 12.8960811735 44.5368593311 24.3508260531
Fe 14.3643663995 43.0005518993 23.0003601209
Fe 15.812280176 44.4685866806 24.3449623339
Fe 17.1643942198 43.0537448268 23.0000873673
Fe 18.7036626369 44.5155895596 24.4448718835
Fe 20.0518010051 43.0460589083 22.9514581416
Fe 21.5388466809 44.4281632874 24.3411271034
Fe 22.9976822787 43.0074517863 22.9711033072
Fe 24.4381322907 44.4525375857 24.4248733526
Fe 25.8178617649 43.0587528783 23.0030716631
Fe 27.2346503411 44.5250143401 24.3992841866
Fe 28.7381231452 43.0361780433 23.0165433663
Fe 30.1269569782 44.4990376016 24.4508745694
Fe 31.5528660572 43.0789172333 22.9653827163
Fe 33.0013131381 44.4390446492 24.3793120845
Fe 34.4828423765 43.0686094322 22.9740254208
Fe 35.9125066105 44.5150478581 24.3928881066
Fe 37.2855440165 43.1072197812 22.9143382099
Fe 38.7558777239 44.5187320746 24.3743816015
Fe 40.146827381 43.0260986759 22.9913611137
Fe 41.6101707223 44.5103876883 24.3845069441
Fe 43.0618463517 43.0220115339 22.9394560881
Fe 44.5138787308 44.4523363633 24.352563519
Fe 45.9026610382 42.9977379777 22.9860277835
Fe 47.412570689 44.5371781536 24.3598790255
Fe 48.7588393658 43.105586322 22.9721098926
Fe 50.1808225161 44.5199327389 24.4358152342
Fe 51.6913866003 43.1056512861 22.9133198038
Fe 53.0757897034 44.5374650692 24.4493144453
Fe 54.5811963329 42.998463839 22.9969043465
Fe 55.9971057764 44.4676610067 24.3713494075
Fe 0.007278764 45.9217961012 22.9682917619
Fe 1.4699737419 47.3188456935 24.4510447541
Fe 2.9204437504 45.9431252841 22.9350988015
Fe 4.3269188798 47.4043848823 24.3426600728
Fe 5.7691123676 45.8677087544 22.943273688
Fe 7.2005325905 47.4083693684 24.4118958866
Fe 8.5938105031 45.8997070721 22.940601534
Fe 10.0577576913 47.3399498795 24.3689463868
Fe 11.4483128863 45.9412033428 22.9189582043
Fe 12.8765688978 47.3238264778 24.3472249531
Fe 14.4027190184 45.930134551 22.9852470392
Fe 15.7969125492 47.3771940632 24.3767346295
Fe 17.2633828551 45.9711158172 22.9553262328
Fe 18.6237912755 47.3043704704 24.4135591112
Fe 20.1090378768 45.8734711516 22.9528922071
Fe 21.4821979269 47.3157565191 24.4156314972
Fe 23.009126344 45.9184299327 22.9827747396
Fe 24.4506603916 47.3324061205 24.3492829246
Fe 25.87240467 45.9122417691 22.9828028334
Fe 27.2938750536 47.314676071 24.3840700175
Fe 28.6745395375 45.9005569099 22.9848318252
Fe 30.1355631518 47.3701305171 24.4230788624
Fe 31.5591932259 45.9276966275 23.0077964908
Fe 32.9522113991 47.3901131682 24.3636334577
Fe 34.483287023 45.8749678727 22.915090224
Fe 35.8638443352 47.3744435545 24.4353127813
Fe 37.3423191029 45.9472621227 22.970029306
Fe 38.7412487284 47.2977226022 24.3612752038
Fe 40.2247051463 45.9406192689 22.9434498887
Fe 41.5656551345 47.3660647821 24.3493879026
Fe 43.034362275 45.9005230121 23.0156893407
Fe 44.4684051289 47.304166842 24.4417639132
Fe 45.904303489 45.9261565193 22.9788494483
Fe 47.3598264585 47.3973467591 24.4260861301
Fe 48.8186071549 45.9391786757 22.967401802
Fe 50.2373290977 47.3987437404 24.3390203244
Fe 51.6469069275 45.9686870444 22.9457407775
Fe 53.1056897069 47.3824697007 24.4430165686
Fe 54.5675954518 45.9641211301 22.9439889077
Fe 55.9146665171 47.3444346095 24.4492622679
Fe 0.0340351554 48.8144509543 23.002359478
Fe 1.4123498097 50.1763569329 24.3473134663
Fe 2.8320993466 48.8178191235 22.9646871314
Fe 4.2642903996 50.1789223792 24.3489973882
Fe 5.69037429 48.8467574743 22.9619042552
Fe 7.1228566753 50.2129676223 24.4026378776
Fe 8.6632316623 48.8385605939 22.9555613761
Fe 10.0150077231 50.2452165231 24.3683704466
Fe 11.4711553783 48.7448808068 22.952068766
Fe 12.9003582555 50.1729477414 24.4227179213
Fe 14.3750698149 48.7619739406 22.9358462759
Fe 15.8125767173 50.2537169937 24.3806069212
Fe 17.2725996117 48.8358599251 23.009342848
Fe 18.660428968 50.1763775646 24.3439166838
Fe 20.0604764146 48.8409271821 23.0068576605
Fe 21.4749447747 50.223131533 24.4514721093
Fe 22.9049258309 48.8058855405 22.9545246732
Fe 24.34898007 50.1695245866 24.3933116972
Fe 25.7920372681 48.834960647 22.9653507825
Fe 27.2480250002 50.252047683 24.3860080926
Fe 28.6534520534 48.7587938825 22.9064012514
Fe 30.1591779024 50.2650708701 24.4144827632
Fe 31.5160070165 48.7642008473 22.9428360184
Fe 32.9801997103 50.266551847 24.4415090356
Fe 34.4909003325 48.7442491516 22.9333613769
Fe 35.8896220707 50.251736385 24.3756231467
Fe 37.2567378002 48.7641279958 22.9146213113
Fe 38.7937379189 50.2565409401 24.3518763053
Fe 40.2366275566 48.7375389306 22.9081816722
Fe 41.6343982594 50.2398161747 24.3738510796
Fe 43.0047496882 48.820088266 22.9940696477
Fe 44.5225600477 50.2581905834 24.4310969094
Fe 45.8701861422 48.7451436642 23.017653816
Fe 47.3600280224 50.1982554904 24.4267239417
Fe 48.8328352226 48.8043157175 23.0108743773
Fe 50.1911704432 50.1956566264 24.3752033183
Fe 51.6493221513 48.8089195179 23.0137197821
Fe 53.1395574261 50.2025535763 24.4391579569
Fe 54.5489897038 48.8358764709 22.9848366415
Fe 55.936461998 50.2705012416 24.4054148363
Fe 0.0168221397 51.7058224271 22.9495959362
Fe 1.4471687989 53.0752089682 24.3920542587
Fe 2.8190667725 51.6911172222 22.9844450653
Fe 4.3234088907 53.1034970218 24.3640934335
Fe 5.7335762379 51.6605693374 22.9303914014
Fe 7.176780525 53.1021342985 24.3679170741
Fe 8.6579187877 51.6060612229 22.9086141704
Fe 10.0067859835 53.1388825653 24.4197688202
Fe 11.5057493494 51.7168430095 22.9058245194
Fe 12.9068135844 53.1034151443 24.4256105806
Fe 14.3215394435 51.6658121706 22.963699394
Fe 15.8110271123 53.0521224292 24.4280224935
Fe 17.1986780858 51.6281612285 22.9235991487
Fe 18.6025468633 53.1246885272 24.34540056
Fe 20.1200366385 51.6143883462 22.9380749523
Fe 21.5055900568 53.0526857162 24.4357505159
Fe 22.9085166378 51.6394013376 22.9219659614
Fe 24.347165962 53.1221999524 24.407137078
Fe 25.8336110699 51.7052062631 22.9731806588
Fe 27.2100059871 53.0978466083 24.4375108587
Fe 28.7004487376 51.6066927958 22.9550907152
Fe 30.116458673 53.0574865415 24.4340543856
Fe 31.5980420784 51.7054266055 23.0067860217
Fe 32.9804264485 53.1049612272 24.4346206488
Fe 34.390119408 51.6348318859 22.9424850002
Fe 35.8870708115 53.0854979017 24.3456805447
Fe 37.2711331233 51.655106386 22.9950616547
Fe 38.6895176428 53.092995955 24.393258615
Fe 40.2053696928 51.7059290604 22.9792381909
Fe 41.6265843094 53.1508756039 24.3830519357
Fe 43.0331893495 51.6110712023 22.9072240079
Fe 44.4923776019 53.131554561 24.408721045
Fe 45.9095203656 51.6339538027 23.0108109109
Fe 47.3607405731 53.044950714 24.3441476025
Fe 48.8056512999 51.6100613083 22.9226472649
Fe 50.1725664257 53.0765781862 24.3483868163
Fe 51.6876993655 51.619654827 22.9524087445
Fe 53.1314042948 53.1429920067 24.4360903252
Fe 54.4774473284 51.6674551616 22.9682922608
Fe 55.9357931414 53.0591400407 24.4185607536
Fe 57.362564313 54.4992306099 22.936420465
Fe 1.4431096128 55.9234545551 24.3544030561
Fe 2.9135899878 54.5606060536 22.977648486
Fe 4.3157063927 55.9579308737 24.3381511758
Fe 5.7036549113 54.5245879908 23.0167222962
Fe 7.1472235891 55.9373227457 24.388666162
Fe 8.5553877625 54.5057185561 22.9470948594
Fe 10.0980950515 55.9360763496 24.3630201804
Fe 11.469274875 54.4765504627 22.9929452086
Fe 12.9305691306 55.9241165807 24.3707569969
Fe 14.3221600332 54.5779948379 22.9481876577
Fe 15.7632579951 56.0151077611 24.4338051233
Fe 17.2719976089 54.5388588123 22.9396230708
Fe 18.6821122566 55.9151522074 24.3633921072
Fe 20.0711856044 54.5108686196 22.9137169066
Fe 21.5565803546 55.950651435 24.4436675772
Fe 22.9412674922 54.5515644286 22.9130684559
Fe 24.3860688762 55.9670597746 24.3557334734
Fe 25.8672334916 54.5158251518 23.0158299009
Fe 27.2643923692 55.9497238502 24.4390924623
Fe 28.723803214 54.5570027917 22.9980940165
Fe 30.1467184502 55.9593062844 24.3778791052
Fe 31.5586437956 54.5770506413 22.9507543947
Fe 32.9952471412 55.9754862848 24.3564010186
Fe 34.3913961785 54.5062654189 22.9785615893
Fe 35.8747831305 55.9152913675 24.3421660851
Fe 37.3515870198 54.5675773498 22.94503904
Fe 38.7881725453 55.9515942936 24.4053177405
Fe 40.1385886523 54.5869113367 22.9913625548
Fe 41.6093286773 55.9725801447 24.3862989112
Fe 42.998174612 54.4741927852 22.976588026
Fe 44.5164454987 55.9832769548 24.4007539615
Fe 45.86710955 54.5451983955 22.9116952418
Fe 47.3882103277 55.9231294504 24.3943619558
Fe 48.7615574571 54.5338024167 22.9737356507
Fe 50.2481572102 55.9675943343 24.4038474164
Fe 51.6376614904 54.4876110464 22.9345716759
Fe 53.1298924248 55.9887453054 24.3572667784
Fe 54.5829986527 54.5127213391 23.0133252187
Fe 55.9244013297 55.9636151457 24.4207731724
Fe 57.3923607924 0.0136728788 25.8688063616
Fe 1.4845459923 1.3932715172 27.261906241
Fe 2.9185372786 57.3594760299 25.87034909
Fe 4.3285297432 1.4208984104 27.3215120132
Fe 5.7543655533 57.3830342266 25.8352335118
Fe 7.2164673772 1.4807601877 27.2470126219
Fe 8.6541847576 0.0045373662 25.8442964559
Fe 10.0338317044 1.4616836432 27.2132518194
Fe 11.4681606768 0.0227299615 25.7882403484
Fe 12.8951706437 1.4674593487 27.275318543
Fe 14.3016520267 57.3450278915 25.815587087
Fe 15.74103843 1.4783210118 27.3086431593
Fe 17.2435355937 0.0280622036 25.7754216116
Fe 18.6310211646 1.4033958171 27.2204442915
Fe 20.0429704579 0.0229772006 25.8432993595
Fe 21.5209835553 1.4642862047 27.3026692847
Fe 22.982760012 57.3491913684 25.8700911542
Fe 24.338142716 1.4277103807 27.2697361085
Fe 25.7788309534 57.3803394958 25.8824608302
Fe 27.2261432479 1.4444858039 27.2081295681
Fe 28.6991816829 57.3493274356 25.8015427388
Fe 30.0807057023 1.4297248139 27.2726065242
Fe 31.5527366685 57.3552522234 25.7981538298
Fe 32.9959263558 1.3835720885 27.2780144764
Fe 34.4768746036 57.3719197327 25.8063381104
Fe 35.8943755003 1.4364351855 27.2200526004
Fe 37.2794809453 57.3576052677 25.8045395964
Fe 38.7621956228 1.4824420799 27.2356502342
Fe 40.1621890183 57.3973816812 25.8409100364
Fe 41.6046980854 1.4695569412 27.2935541018
Fe 43.056335701 0.03790101 25.7916313465
Fe 44.4614726137 1.4490800543 27.2608338466
Fe 45.9478856292 0.0016498527 25.8062169735
Fe 47.3854496204 1.4283065869 27.2322750884
Fe 48.7357164443 57.3547436498 25.8654244931
Fe 50.1883752807 1.4731618316 27.2525646858
Fe 51.6355600896 0.0525452862 25.8460663326
Fe 53.0718522573 1.4808064092 27.2571813078
Fe 54.5221771129 0.0468976984 25.8720505668
Fe 55.9091280499 1.40110005 27.237053945
Fe 0.0367413332 2.8163312917 25.8540585641
Fe 1.4828028197 4.3550682453 27.2954408588
Fe 2.8657078408 2.9128142504 25.850631461
Fe 4.3034675409 4.351814759 27.2339109123
Fe 5.7504798079 2.8992051818 25.8539037313
Fe 7.1482374296 4.2985891088 27.2309442508
Fe 8.6360975246 2.9077660518 25.867008688
Fe 10.0981994322 4.3049294262 27.2200949915
Fe 11.4777220288 2.8895803032 25.8673909792
Fe 12.8943237284 4.3267865119 27.267622104
Fe 14.3927540961 2.8417055557 25.8081341329
Fe 15.7524824812 4.2657509823 27.2628307815
Fe 17.1637065262 2.8578502968 25.8165145687
Fe 18.6034147668 4.250650568 27.2600852934
Fe 20.1197858017 2.8981078794 25.8563457315
Fe 21.523872027 4.3019798083 27.3055736564
Fe 23.0052467122 2.8354092862 25.8406355627
Fe 24.4527872738 4.3101241881 27.2954145617
Fe 25.875638951 2.8634384252 25.8355815746
Fe 27.2562330514 4.3448981626 27.2191085793
Fe 28.6802047581 2.8546229737 25.7803374161
Fe 30.1778349022 4.2807402802 27.2770891695
Fe 31.5422066796 2.9232615282 25.8415774404
Fe 33.0093674588 4.284874675 27.296613427
Fe 34.4640365047 2.8427021418 25.7993553194
Fe 35.8269020381 4.3537322723 27.2156582672
Fe 37.3209748287 2.8345764294 25.8379401657
Fe 38.7334228067 4.24817537 27.212111456
Fe 40.2159678316 2.87093797 25.8724693898
Fe 41.5848037199 4.3218147638 27.2952909657
Fe 43.088016178 2.926549764 25.8098892824
Fe 44.4487131696 4.3411240178 27.2339887191
Fe 45.963731098 2.9213215954 25.8786127347
Fe 47.3389048484 4.3059606457 27.24702679
Fe 48.749111641 2.8892126517 25.8390326476
Fe 50.2036647478 4.2995288607 27.2957824027
Fe 51.6991961644 2.8767526233 25.8438234254
Fe 53.0567690019 4.3561219035 27.2755497397
Fe 54.5832812258 2.9198652325 25.8004508287
Fe 55.9801737823 4.3016155029 27.2960552411
Fe 57.3982864924 5.7486080965 25.7980627956
Fe 1.4835532615 7.1457265267 27.3064723665
Fe 2.886997322 5.6872468926 25.7882647245
Fe 4.3458191404 7.1207913667 27.2189059508
Fe 5.7242557457 5.7530644892 25.8099310067
Fe 7.1761712955 7.1876400247 27.2922283714
Fe 8.6613673093 5.7046448825 25.8478340024
Fe 10.0191370797 7.1397430039 27.2956253205
Fe 11.5049117852 5.7962859687 25.8867706634
Fe 12.8779420441 7.2293683981 27.318014565
Fe 14.3968272774 5.7068635426 25.7777614809
Fe 15.7814435444 7.1977608764 27.2096311209
Fe 17.2774510026 5.7530157786 25.8792667399
Fe 18.6902829433 7.201467837 27.2991214861
Fe 20.0656210821 5.7385434546 25.7727336076
Fe 21.5546296671 7.1537905238 27.234502399
Fe 22.9375241876 5.6956404774 25.82216135
Fe 24.4023860438 7.2264107546 27.2866606461
Fe 25.8095500888 5.6848567727 25.8518524547
Fe 27.2452193077 7.1183302797 27.28346706
Fe 28.7161120236 5.7236521352 25.8527700756
Fe 30.1562766896 7.1474817753 27.2713709347
Fe 31.5402228845 5.7323357057 25.8552220102
Fe 33.0357587797 7.1966988959 27.2564941
Fe 34.4170690493 5.7560293298 25.8042326953
Fe 35.8700241417 7.1250536094 27.2466840981
Fe 37.3362499201 5.7764487786 25.8379901424
Fe 38.7601113441 7.147469419 27.2553340139
Fe 40.1911735075 5.7624225819 25.7894482945
Fe 41.6606998428 7.1841658884 27.272693362
Fe 43.0444458579 5.7195220655 25.8220289264
Fe 44.4858682292 7.1416915809 27.2739996923
Fe 45.8778082894 5.7059691312 25.8767033095
Fe 47.3779763159 7.2301045744 27.2386486872
Fe 48.8157830524 5.7887077087 25.8687875918
Fe 50.1828360704 7.1247050187 27.2086764506
Fe 51.6518532394 5.7215521195 25.8707312113
Fe 53.0876956657 7.213265976 27.2792422948
Fe 54.4945727814 5.7258417979 25.7725545155
Fe 55.9154634636 7.1404736581 27.318479832
Fe 57.3774344256 8.5947671376 25.8759015458
Fe 1.4519074238 10.0025316198 27.2392859022
Fe 2.8379873092 8.6207589229 25.8626862869
Fe 4.3246737135 10.0479749387 27.2435300827
Fe 5.7781673684 8.6103242818 25.7773860508
Fe 7.1637383436 10.0170338118 27.2835608496
Fe 8.5814075159 8.6322515992 25.8289966978
Fe 10.0220096982 10.0423322359 27.2788664229
Fe 11.5030608856 8.6554925535 25.7808041672
Fe 12.9581622321 10.022597668 27.226102106
Fe 14.3545543818 8.6312332983 25.8771561853
Fe 15.7305754939 10.0199226744 27.237840475
Fe 17.2218929109 8.667129244 25.8037093894
Fe 18.6595921081 10.0288334917 27.2640355447
Fe 20.1170568421 8.6671354631 25.8769241764
Fe 21.5061657318 10.0419365421 27.3096157369
Fe 23.0144737329 8.6294489664 25.7873464469
Fe 24.3803267119 10.0554651513 27.3062455601
Fe 25.7820400249 8.6460927959 25.7972197727
Fe 27.2616318175 10.0565322364 27.2638552957
Fe 28.7355431177 8.6529918036 25.8435634008
Fe 30.1147029963 10.0188537564 27.2559274005
Fe 31.5495921324 8.6534770805 25.7832942933
Fe 32.9693024434 10.0719282876 27.290110587
Fe 34.389591158 8.5918699651 25.8856026988
Fe 35.897874871 9.9998558806 27.2910203258
Fe 37.3521122091 8.6337423947 25.8291304303
Fe 38.7827076036 9.9889347524 27.2636221807
Fe 40.1269384282 8.5983531408 25.8452647836
Fe 41.6550500777 9.9969609419 27.2380068751
Fe 43.0568648518 8.6649883514 25.880964438
Fe 44.5072388435 10.0751997991 27.2514246823
Fe 45.9737972495 8.5926190373 25.8682480867
Fe 47.3675343876 10.043369796 27.3084787924
Fe 48.823193668 8.6287874463 25.7967687458
Fe 50.2551228292 10.0860391949 27.2598060676
Fe 51.643931179 8.6503482881 25.8406896373
Fe 53.0669683927 10.0307382888 27.3019191293
Fe 54.5058318469 8.6153237048 25.8807521116
Fe 56.012171757 10.0896045351 27.3049372302
Fe 57.3820790694 11.4974015401 25.819042851
Fe 1.4528037779 12.9071401722 27.2466146229
Fe 2.9123504831 11.431320293 25.8144404369
Fe 4.3206692489 12.893745014 27.2977198114
Fe 5.7496928699 11.4430934829 25.821917232
Fe 7.1433599287 12.9669404371 27.2695295711
Fe 8.5676212897 11.4597745097 25.8459749602
Fe 10.0909066498 12.8581317472 27.3199570688
Fe 11.4718480755 11.4815163272 25.7811835668
Fe 12.935356081 12.9612240052 27.2392480275
Fe 14.3592344095 11.4736086668 25.8453089102
Fe 15.7521220422 12.8960953929 27.3220654405
Fe 17.1745041191 11.4527228583 25.8624298601
Fe 18.7079726844 12.8633377364 27.2396504545
Fe 20.0668663887 11.5148956561 25.7821510066
Fe 21.5041984103 12.8657255909 27.2367270024
Fe 22.9044967861 11.4511318232 25.8323825599
Fe 24.3784496996 12.9354638303 27.3151127535
Fe 25.8753802631 11.4538425806 25.8683557376
Fe 27.2638434188 12.9648568341 27.2429822716
Fe 28.6630857521 11.4707034481 25.8291423801
Fe 30.1639019867 12.8775670124 27.2267135621
Fe 31.5333205495 11.5161212821 25.8668668094
Fe 33.0243671307 12.9303330864 27.2918684589
Fe 34.4347519317 11.4999294147 25.8325695404
Fe 35.842424951 12.8874777294 27.314431973
Fe 37.311574576 11.4418116021 25.8079028549
Fe 38.6874149615 12.9301489807 27.2196358354
Fe 40.2358121222 11.4459339179 25.8727608483
Fe 41.6495052242 12.8997289513 27.2860425655
Fe 43.0475289381 11.4946203976 25.8254427917
Fe 44.5198309232 12.939825295 27.3182953257
Fe 45.9592287644 11.4397986152 25.8559709644
Fe 47.3529388513 12.9713494614 27.3016242412
Fe 48.8195724157 11.5236210544 25.7948826008
Fe 50.2595623041 12.9591572231 27.3207880972
Fe 51.6187150105 11.5009668538 25.8237779175
Fe 53.1188348663 12.9217396732 27.2958737204
Fe 54.5541054304 11.445611738 25.8491173979
Fe 55.9799099961 12.8734281258 27.2367528715
Fe 5.40198826e-04 14.3388923816 25.8329604679
Fe 1.4460759819 15.8306039728 27.27984506
Fe 2.8548293653 14.3894040141 25.817401476
Fe 4.3561537261 15.7966071781 27.3028984377
Fe 5.7702609934 14.348230955 25.8810780811
Fe 7.1959458906 15.7402026984 27.2390006621
Fe 8.5779786087 14.3035059758 25.8463914369
Fe 10.0763168876 15.8281693415 27.288142686
Fe 11.5243048588 14.4046107971 25.8472141599
Fe 12.8837955966 15.840390749 27.2670514697
Fe 14.3623566581 14.3063397071 25.8445317649
Fe 15.7808683795 15.8317916374 27.2245858898
Fe 17.2304304202 14.2943121113 25.7738682572
Fe 18.6530920265 15.7975837395 27.3089942839
Fe 20.1313977969 14.3168463883 25.8349681411
Fe 21.5105546068 15.8365424512 27.3034685553
Fe 22.9999568491 14.3088614345 25.7784114942
Fe 24.3924582259 15.7367995739 27.2454994657
Fe 25.8022164716 14.3400523015 25.873258758
Fe 27.3026459465 15.8006004481 27.2658832685
Fe 28.6820313708 14.3053037174 25.8851973085
Fe 30.1724719441 15.7771588807 27.2466067541
Fe 31.5480992528 14.3355429888 25.8463482334
Fe 32.9698350366 15.7540007198 27.2751951765
Fe 34.4315419327 14.3985879195 25.830098398
Fe 35.8413975646 15.7737518953 27.2262502218
Fe 37.3633819775 14.3899900569 25.782676319
Fe 38.7637547976 15.793726758 27.2741967181
Fe 40.1675577584 14.4052140467 25.8756056675
Fe 41.5684941663 15.7754005743 27.2749707466
Fe 43.0375011096 14.3428576883 25.8764486274
Fe 44.5306803878 15.7500350173 27.3175432035
Fe 45.8660545784 14.3886926845 25.8636810612
Fe 47.35403145 15.7979606236 27.2616580002
Fe 48.8301598129 14.3942428726 25.8095955932
Fe 50.2169112566 15.8113742783 27.2703181779
Fe 51.6357320419 14.3260012291 25.8589244668
Fe 53.0878231439 15.7765561182 27.2529472547
Fe 54.5450934218 14.3159270874 25.8633774779
Fe 56.0190348706 15.8400127376 27.2552030507
Fe 0.0510426334 17.260389586 25.8396978035
Fe 1.4539523714 18.690766026 27.3224127181
Fe 2.8427740995 17.2696103728 25.8307321221
Fe 4.3220056983 18.6836227878 27.2123901651
Fe 5.7197046196 17.1980668915 25.8371785476
Fe 7.127359511 18.6541885679 27.2501008844
Fe 8.6006204826 17.1673647295 25.8121134921
Fe 10.0361531814 18.6863080485 27.2470625117
Fe 11.4566951435 17.2449288599 25.7890368625
Fe 12.9344576803 18.618950537 27.2959665059
Fe 14.4054795176 17.1699066578 25.8425269865
Fe 15.7491716647 18.6573222548 27.2088657439
Fe 17.2291709291 17.2766934799 25.8130143043
Fe 18.6897410177 18.6150917792 27.3015677186
Fe 20.1375857421 17.2455432954 25.8441252423
Fe 21.5385351993 18.6234664324 27.2472872211
Fe 22.9631847051 17.1919422183 25.8317429402
Fe 24.3997500554 18.6698118287 27.2268983496
Fe 25.8492143695 17.2560437033 25.80246283
Fe 27.294530875 18.6924174795 27.3150119838
Fe 28.6447356718 17.1723122723 25.8272709988
Fe 30.0884990368 18.6159226253 27.2832534282
Fe 31.5209006031 17.2610458205 25.844252676
Fe 33.0544137088 18.641483659 27.2388254218
Fe 34.4302269321 17.2749586005 25.8477627213
Fe 35.8886809516 18.7086977801 27.2783394138
Fe 37.3019443482 17.1800388019 25.8163362087
Fe 38.7906569029 18.7065164835 27.2270792873
Fe 40.1744835271 17.2306056387 25.8032276739
Fe 41.6551149779 18.7099568603 27.2764967947
Fe 43.0645174397 17.1823896756 25.8654061891
Fe 44.4884197423 18.60860467 27.315111289
Fe 45.8950062776 17.2170441645 25.8769119257
Fe 47.3180170317 18.6006211975 27.2083620776
Fe 48.8283430067 17.210642847 25.8264887928
Fe 50.2661588479 18.6056236628 27.2715540019
Fe 51.6278301876 17.1937692753 25.8121496318
Fe 53.1337152118 18.7121103358 27.2347439656
Fe 54.5845269562 17.2299423106 25.8532845423
Fe 55.9347180035 18.6268584612 27.2270134775
Fe 57.3776467314 20.1151671457 25.8043611336
Fe 1.416721438 21.4784964391 27.2949839495
Fe 2.8170634814 20.1019142927 25.8013436619
Fe 4.3495682359 21.5785281904 27.3214518102
Fe 5.6886073822 20.137972294 25.8039719771
Fe 7.1971815512 21.4878969536 27.3075103152
Fe 8.6126358551 20.0429804004 25.8435484186
Fe 10.0676520191 21.5595715859 27.3003600819
Fe 11.5138553862 20.1311393228 25.7945687993
Fe 12.8733468963 21.5399225251 27.2592690208
Fe 14.3510627789 20.0857009149 25.8458600364
Fe 15.7674956809 21.5184508697 27.3028856963
Fe 17.2338204473 20.0582655311 25.8610900894
Fe 18.6814979941 21.5219270165 27.298107491
Fe 20.1250635567 20.0859864062 25.8101031213
Fe 21.5080573971 21.5665155154 27.3109482911
Fe 23.0027064032 20.0718694293 25.8821105988
Fe 24.4080901211 21.4946252106 27.2467320492
Fe 25.8238878084 20.0640251103 25.798031528
Fe 27.2294616964 21.4711290612 27.2420371741
Fe 28.7433349334 20.0757005225 25.8165758731
Fe 30.0879945396 21.5555711711 27.271515618
Fe 31.6194324277 20.1154689106 25.8615871278
Fe 33.049313286 21.5346571865 27.2566606406
Fe 34.4232470615 20.134868695 25.8492333236
Fe 35.8968570332 21.5643233562 27.2109575192
Fe 37.3610937627 20.0534207764 25.8128847564
Fe 38.7478768456 21.5692443674 27.3049518101
Fe 40.1745745687 20.0425777083 25.8084766284
Fe 41.6436927176 21.566325416 27.2833295219
Fe 42.9944517488 20.0477824903 25.8628963248
Fe 44.4604700765 21.467699087 27.2121681036
Fe 45.9351303854 20.0417503624 25.8311104811
Fe 47.3661960725 21.5094936907 27.2698184362
Fe 48.8144076032 20.0738041404 25.8454242273
Fe 50.1924655368 21.5014078943 27.3132472559
Fe 51.69267478 20.1216941533 25.8195269027
Fe 53.0832530001 21.5809210314 27.2880220904
Fe 54.5795028551 20.0526500136 25.79155443
Fe 55.9778145188 21.5628138908 27.2135501158
Fe 57.3995590703 22.9618048825 25.8070719566
Fe 1.4015827977 24.3592936324 27.2480143793
Fe 2.9034295414 23.013377995 25.8666837586
Fe 4.2500242801 24.367044096 27.2977256778
Fe 5.7565850574 22.9143924801 25.8869096357
Fe 7.1970222743 24.433410844 27.2084194222
Fe 8.5798761598 22.963244942 25.7913870217
Fe 10.0464592892 24.3505127866 27.2752107233
Fe 11.4246544925 22.9912266842 25.875823665
Fe 12.8999794827 24.3681691122 27.249723298
Fe 14.398347401 22.9430606047 25.8869410562
Fe 15.7504707552 24.4123448075 27.2419440006
Fe 17.1955838759 22.9869021136 25.8561100038
Fe 18.6043035184 24.3480512112 27.3107081653
Fe 20.1143317609 22.9710144525 25.7983855137
Fe 21.5276870726 24.3952329698 27.2265253477
Fe 23.0080506385 22.9867364089 25.8577308946
Fe 24.3653833492 24.4505646376 27.250306885
Fe 25.7962589389 23.0076867328 25.880335017
Fe 27.3079237464 24.444574814 27.3052830559
Fe 28.7054221084 22.9586535602 25.8182340827
Fe 30.117642222 24.4390508552 27.2734873177
Fe 31.5650282883 22.9185200554 25.8222466221
Fe 32.9505293574 24.4520810174 27.2744375596
Fe 34.4465668931 22.9362877439 25.7809876858
Fe 35.8294868524 24.3936448884 27.2244769561
Fe 37.2954151944 23.0158342397 25.8179728443
Fe 38.7549074414 24.3834849567 27.2792952998
Fe 40.1758381607 22.9625175847 25.8695986743
Fe 41.5923008486 24.3424503808 27.2157685322
Fe 43.0534301851 22.9059184133 25.7945681181
Fe 44.5280130253 24.4147510238 27.2721721606
Fe 45.9226471237 22.9565194491 25.8546012231
Fe 47.3393718254 24.4516837658 27.2663634614
Fe 48.8121650426 22.9970300933 25.7736984279
Fe 50.1783628813 24.3795444577 27.2534775971
Fe 51.6984265417 22.9388542197 25.8169409963
Fe 53.076955099 24.4063696939 27.2606641801
Fe 54.4766980123 22.9379460647 25.8785347302
Fe 55.9900384819 24.4477541333 27.2554011818
Fe 57.3940717771 25.8717684747 25.8281150326
Fe 1.4187214503 27.2817101267 27.2923244914
Fe 2.905287024 25.8813149818 25.861001812
Fe 4.3196676943 27.2115583403 27.2743615
Fe 5.7615189223 25.7957851147 25.8805018303
Fe 7.1414009657 27.2228768747 27.2257897234
Fe 8.5693260871 25.7956128005 25.8327206786
Fe 10.0505821264 27.2106307301 27.3103946499
Fe 11.4490691974 25.8808830459 25.8142269502
Fe 12.9536181021 27.2853606989 27.2279785479
Fe 14.3316182282 25.8876582821 25.8871435043
Fe 15.7592313376 27.2156506303 27.2776954128
Fe 17.2323137327 25.8255655464 25.8154114307
Fe 18.7058571271 27.2749021145 27.294515878
Fe 20.0773101306 25.809220039 25.7989156709
Fe 21.549600689 27.2560399575 27.2118011947
Fe 22.9680221716 25.8224279013 25.8053355835
Fe 24.4095034844 27.2712722228 27.2888340005
Fe 25.7798056429 25.8627759292 25.810962731
Fe 27.2991606276 27.2503202448 27.285256109
Fe 28.74422776 25.866348429 25.7986345019
Fe 30.147085562 27.2604202235 27.2756164211
Fe 31.5481847688 25.8708908923 25.7996318512
Fe 32.9502992649 27.2485234335 27.2234122482
Fe 34.4127656251 25.873975492 25.8364714103
Fe 35.8232512317 27.2731324542 27.2703875962
Fe 37.3233932671 25.7796635905 25.8319309638
Fe 38.7564386568 27.3178134639 27.3201939842
Fe 40.2141339462 25.7758162405 25.8576612051
Fe 41.5776851992 27.2830769358 27.3022056379
Fe 43.1026493703 25.8722081846 25.7872085954
Fe 44.4364455886 27.3100834705 27.2202771229
Fe 45.8989413445 25.7808433999 25.842272548
Fe 47.4091907685 27.2376285832 27.2485495221
Fe 48.8104141297 25.8167241361 25.7761028209
Fe 50.2523782873 27.2189324883 27.3116492375
Fe 51.6219496046 25.8815709434 25.8036249458
Fe 53.0762083058 27.2649316015 27.3172236755
Fe 54.5652629791 25.8369694861 25.8640699646
Fe 56.0183097278 27.2483867996 27.2518339427
Fe 57.3726409601 28.7369032422 25.8757325378
Fe 1.399961687 30.1194103712 27.2588615926
Fe 2.9033326299 28.6464818289 25.8214692532
Fe 4.3032805267 30.1255698677 27.2563382767
Fe 5.777700664 28.6831078837 25.8232627164
Fe 7.2320215688 30.1917121318 27.2158080755
Fe 8.561054252 28.7018628449 25.804474916
Fe 10.0756254091 30.0923635929 27.234266201
Fe 11.4260476648 28.7130902504 25.8779681034
Fe 12.9726870693 30.1407157242 27.3005910813
Fe 14.3329277148 28.7276241512 25.8455111709
Fe 15.7637683296 30.1591636959 27.3141885167
Fe 17.1940463355 28.6877653341 25.8860116703
Fe 18.707564099 30.1376816906 27.2111678861
Fe 20.1457848731 28.7116387638 25.8449184986
Fe 21.562647499 30.1088798029 27.3164190673
Fe 22.9843340179 28.7497497715 25.7859714211
Fe 24.410697367 30.1182271116 27.2205905191
Fe 25.8265692476 28.6944438424 25.7812107918
Fe 27.3091114591 30.1859221359 27.2108399523
Fe 28.684960812 28.7093237893 25.8504076798
Fe 30.0914026768 30.08970227 27.3110476511
Fe 31.513128948 28.6877667178 25.7906854211
Fe 32.9630471309 30.1823905952 27.2182789906
Fe 34.4165721116 28.6670178083 25.8057945744
Fe 35.9079415932 30.1080821053 27.2873951655
Fe 37.2685289834 28.699335041 25.7752331067
Fe 38.7304094135 30.0982075021 27.2138514899
Fe 40.163039418 28.650924804 25.8778046165
Fe 41.640603704 30.1197255204 27.2731483935
Fe 43.0874099652 28.6889463392 25.8222714058
Fe 44.5083549119 30.0990067561 27.2380061351
Fe 45.9479019526 28.701057429 25.8539874079
Fe 47.3946818007 30.1278518092 27.3127275112
Fe 48.7571590195 28.6755043785 25.7880119565
Fe 50.2433529397 30.188128204 27.3201273448
Fe 51.6592706401 28.7336323519 25.7975310049
Fe 53.0633448635 30.091972807 27.282188143
Fe 54.4935125697 28.6739199857 25.8016251992
Fe 55.913138954 30.0869542408 27.2972828946
Fe 0.0473161728 31.5440995738 25.8788421792
Fe 1.4489721684 32.9826684163 27.2076476978
Fe 2.9274078785 31.5207558552 25.7812372501
Fe 4.2994794204 32.9963212346 27.2803000491
Fe 5.7551969706 31.5994567422 25.8578263979
Fe 7.1321206672 32.9986646669 27.2387003634
Fe 8.6505202355 31.5197175797 25.8632537519
Fe 10.0544953545 33.0029397705 27.2580619249
Fe 11.5177706356 31.5564969179 25.7809439363
Fe 12.970505806 33.0450693438 27.2348952312
Fe 14.4006613003 31.6016386816 25.8821111144
Fe 15.7664443472 32.9732460813 27.2960301573
Fe 17.1990491699 31.5634349714 25.8785558482
Fe 18.6120599425 33.0225951334 27.2377860519
Fe 20.0393767912 31.6060141046 25.8650760804
Fe 21.4921251032 33.0082568626 27.2539643856
Fe 22.9085537934 31.6196177644 25.7810015085
Fe 24.4126009292 32.9669212997 27.2924825562
Fe 25.7963226091 31.6155872636 25.8799759493
Fe 27.2918333706 32.9604034263 27.2981992883
Fe 28.7126060459 31.5559176977 25.7912910411
Fe 30.1341260688 33.0490586278 27.2325113236
Fe 31.5620594685 31.5778588849 25.8369718682
Fe 33.0257498903 32.9676606997 27.2804575557
Fe 34.4131151646 31.5987003722 25.8501461008
Fe 35.8364146794 33.0091910009 27.2955205525
Fe 37.2755672138 31.5500218284 25.8395485063
Fe 38.7567536245 32.9590556623 27.2073381451
Fe 40.1825284596 31.5901287367 25.8319431354
Fe 41.5960519304 33.050403316 27.3060510055
Fe 43.0475193895 31.5662273007 25.8298034346
Fe 44.5095145281 33.0385329835 27.3072631649
Fe 45.8752328295 31.6092667219 25.8247149689
Fe 47.3704129181 33.0109738208 27.3169124173
Fe 48.8082334668 31.5382241121 25.8649322189
Fe 50.2815533191 33.0277349108 27.234891595
Fe 51.6606930828 31.554874313 25.7751468434
Fe 53.1456104608 32.9774725176 27.3206529847
Fe 54.5384487194 31.5383684986 25.7739035355
Fe 55.9149517307 32.981636555 27.312984299
Fe 57.3979363099 34.4289431042 25.8376939188
Fe 1.386855075 35.9129391425 27.2945502124
Fe 2.8638575574 34.4663994444 25.7736452102
Fe 4.3088180069 35.8299357919 27.252084701
Fe 5.7874309661 34.4855183264 25.8795753223
Fe 7.156996231 35.8621654229 27.2513082478
Fe 8.6441935372 34.4676415132 25.8331581933
Fe 10.0170748763 35.8735115201 27.3217533349
Fe 11.4613333295 34.4174614427 25.8696357788
Fe 12.9534289301 35.8857359327 27.2465966752
Fe 14.4041501092 34.3915498256 25.8461322149
Fe 15.802090288 35.9097042122 27.2160903936
Fe 17.2432305884 34.3853221555 25.885661563
Fe 18.619456911 35.9185119431 27.2142191328
Fe 20.1059346693 34.4045635641 25.8786790787
Fe 21.485865604 35.8252237418 27.2691192235
Fe 22.9527588214 34.4612317003 25.8466330775
Fe 24.3806771837 35.8657271051 27.2885178613
Fe 25.8375422517 34.4886206039 25.795385079
Fe 27.3014548919 35.8319551318 27.2767693317
Fe 28.6992219519 34.4956179865 25.8077493327
Fe 30.1455626595 35.8685655472 27.2784951374
Fe 31.5985424357 34.4312268155 25.7873027961
Fe 33.0150143792 35.9259477283 27.2919019848
Fe 34.3856997827 34.4837328299 25.8446963197
Fe 35.9033286812 35.8700736851 27.2417345358
Fe 37.3313015159 34.4403922543 25.8357649915
Fe 38.7540675508 35.8718081382 27.2292653059
Fe 40.1438155992 34.3973943877 25.8856375206
Fe 41.5915178326 35.8750157511 27.2143593436
Fe 43.0225172202 34.3932002505 25.8726541677
Fe 44.4765609114 35.9002375102 27.2855304137
Fe 45.9146629347 34.4779275174 25.8297862929
Fe 47.3810411154 35.920868041 27.2432082461
Fe 48.7698843002 34.4168419537 25.7773143393
Fe 50.2103699866 35.8938134538 27.2199908734
Fe 51.6687100413 34.4173529101 25.8732581296
Fe 53.1106063574 35.8180953928 27.2626676822
Fe 54.4735512909 34.4251902733 25.8198438591
Fe 55.9700642505 35.8869869129 27.3012206171
Fe 57.3717024869 37.3129066602 25.8721691466
Fe 1.3804707094 38.7966450138 27.2794806528
Fe 2.8581035785 37.3409291966 25.8652644579
Fe 4.3105191486 38.7711960547 27.2858277676
Fe 5.7060387912 37.3245719406 25.8350237047
Fe 7.1393693991 38.7838845586 27.2188592407
Fe 8.644406825 37.3409046672 25.8143951877
Fe 10.005885376 38.6968601309 27.2828535035
Fe 11.4240853423 37.3459547603 25.8761447415
Fe 12.8937205106 38.7078856645 27.2146164623
Fe 14.3094166529 37.2938789533 25.8203930239
Fe 15.8277708334 38.781196868 27.2351865364
Fe 17.1894274122 37.3411657518 25.882308804
Fe 18.6314345666 38.7256640974 27.2107868035
Fe 20.1472976035 37.2951548323 25.7950841888
Fe 21.4832951886 38.7856243681 27.2764318621
Fe 23.0133007107 37.2746521472 25.8423982197
Fe 24.3985131397 38.7343982889 27.3065272424
Fe 25.8406199922 37.3071479225 25.8248470501
Fe 27.2507079062 38.7979435976 27.2578117548
Fe 28.7379679563 37.3026398193 25.7812328918
Fe 30.127393749 38.7947084052 27.3068737951
Fe 31.5970717005 37.2685391845 25.7977681742
Fe 32.9819689214 38.779919943 27.2169296242
Fe 34.4216446045 37.2565298376 25.8819717213
Fe 35.8922847031 38.7190400083 27.2998149349
Fe 37.3301863164 37.3182058265 25.8009903165
Fe 38.7380386186 38.710728901 27.2866225308
Fe 40.1824250794 37.3203005685 25.788948708
Fe 41.6642105916 38.7059623862 27.2827696409
Fe 42.996710944 37.2937531678 25.8444024902
Fe 44.5173050534 38.7273183662 27.3071754149
Fe 45.911955529 37.2873895857 25.8082890364
Fe 47.3960351759 38.778187097 27.2144895951
Fe 48.789602551 37.3643636962 25.8400938861
Fe 50.2665041532 38.7031781541 27.2489528418
Fe 51.6509044538 37.3648850319 25.837110629
Fe 53.109616157 38.7316126634 27.2303664694
Fe 54.5266281476 37.2829595921 25.8186853884
Fe 55.9742549246 38.7840030504 27.2780815198
Fe 0.0390674212 40.1635366683 25.8533059475
Fe 1.4067405127 41.6012050996 27.3195893778
Fe 2.8954612604 40.20904741 25.8867867862
Fe 4.3368430744 41.6479746708 27.2665160457
Fe 5.7536079278 40.2163163411 25.8062689662
Fe 7.2177903023 41.6153522835 27.2940859082
Fe 8.5721224888 40.2228993035 25.8528244945
Fe 10.0304860584 41.58841898 27.2376335672
Fe 11.4937941341 40.236771982 25.8280626676
Fe 12.9219333251 41.6446983973 27.2598054792
Fe 14.3544294856 40.1758700342 25.7734254465
Fe 15.7765243188 41.6014153103 27.314014951
Fe 17.2634385964 40.1400552621 25.847466561
Fe 18.6546101158 41.6330968611 27.2225225824
Fe 20.1397329486 40.1326856547 25.8442472815
Fe 21.5727212627 41.600906124 27.2207360284
Fe 22.9788936547 40.15557236 25.8502508466
Fe 24.3575392238 41.6462796159 27.3031200312
Fe 25.8012114434 40.1235274943 25.8446554556
Fe 27.2284787218 41.5841246633 27.2390169648
Fe 28.6573263669 40.1645084784 25.8070759682
Fe 30.1278163969 41.5778832585 27.2233975781
Fe 31.6188694642 40.1604408738 25.8025909127
Fe 33.0596131763 41.5976727236 27.2602194987
Fe 34.4445560234 40.1424025246 25.8355393248
Fe 35.8536621463 41.5719601359 27.2130872861
Fe 37.3491065211 40.1249362909 25.8159578607
Fe 38.739351163 41.6502914827 27.2934793262
Fe 40.1408067585 40.1716213213 25.8045960193
Fe 41.6440368569 41.6009487853 27.2845506636
Fe 43.081051307 40.1861302869 25.8271071423
Fe 44.51311137 41.6081776776 27.305268519
Fe 45.8864331832 40.1837591042 25.82094021
Fe 47.3811220662 41.6638506873 27.2610375371
Fe 48.7495200657 40.2199677551 25.8068857125
Fe 50.237287501 41.5950291403 27.2226765509
Fe 51.6984942567 40.2061105954 25.7938904734
Fe 53.1456521195 41.6706362543 27.2894177482
Fe 54.503537037 40.2179062488 25.817149552
Fe 56.0199474574 41.6224145753 27.2407008215
Fe 57.350747792 43.0166405524 25.8657605744
Fe 1.4302869608 44.5262996108 27.2138834657
Fe 2.891658389 43.0285620129 25.8257137727
Fe 4.3083098143 44.4753351881 27.2813987456
Fe 5.7964241816 43.0025056172 25.8183485143
Fe 7.187634309 44.5036894616 27.2528992467
Fe 8.6421889525 43.0740483982 25.8154681798
Fe 10.0673812936 44.4573549787 27.2757347795
Fe 11.4591766559 42.9950508663 25.7739868938
Fe 12.9396452247 44.4527018938 27.2321585538
Fe 14.3931756156 43.092072693 25.8333514731
Fe 15.7796542826 44.4864709283 27.2536002855
Fe 17.1908835782 43.0259314514 25.8858820761
Fe 18.6905892308 44.4291420102 27.2582964733
Fe 20.0595807661 43.0502251062 25.8326420926
Fe 21.548930371 44.4815303249 27.28937207
Fe 22.9426869536 43.0649594729 25.8272847458
Fe 24.3960405346 44.4910412735 27.2266332562
Fe 25.7735920256 43.0314086099 25.7869959956
Fe 27.2128531888 44.4720605577 27.2840973564
Fe 28.6737760215 43.0544854953 25.8856476301
Fe 30.1252678752 44.4900455668 27.2195834122
Fe 31.5971802465 43.0220892184 25.8602917229
Fe 32.967438555 44.4549243945 27.2915301772
Fe 34.4252307053 43.0545119704 25.8491794821
Fe 35.8806131343 44.4617753598 27.2490995972
Fe 37.3076549384 43.1007852294 25.8139217547
Fe 38.7419341974 44.4511179743 27.2586889332
Fe 40.234408966 43.0454421242 25.7932273983
Fe 41.579593668 44.4995188131 27.297874648
Fe 43.078226062 43.0178211161 25.8263226441
Fe 44.4942185992 44.5151209413 27.299520275
Fe 45.8808198165 43.0523561622 25.7965140211
Fe 47.4067265118 44.4668454775 27.247682771
Fe 48.8376547679 43.0571402437 25.8872938187
Fe 50.1735890827 44.4639103259 27.2783688763
Fe 51.6639960924 43.0943856511 25.7982728798
Fe 53.0610828067 44.4343985176 27.2078535234
Fe 54.4824267602 43.0299604901 25.7739085161
Fe 55.9371349167 44.4824212892 27.209378011
Fe 0.0138317186 45.9296541348 25.8508904057
Fe 1.4254216641 47.3106483775 27.2832381833
Fe 2.9011725714 45.8996287292 25.8485173062
Fe 4.3544297429 47.3944397022 27.3117525378
Fe 5.7527931797 45.929323652 25.8096631351
Fe 7.1556333387 47.3392750448 27.3179859885
Fe 8.6289884757 45.954507093 25.7849734007
Fe 9.9987732639 47.3214223675 27.2685297578
Fe 11.4626128327 45.969537855 25.8118466383
Fe 12.9004795024 47.3863637858 27.2709253743
Fe 14.373949321 45.9106610487 25.775522016
Fe 15.7421654517 47.3880821576 27.2554661978
Fe 17.1874500227 45.9141018211 25.8060763928
Fe 18.6383974488 47.3646855113 27.2783275971
Fe 20.036484729 45.9614812343 25.8147309509
Fe 21.5345318155 47.4066741817 27.2938617903
Fe 23.0091504327 45.9629109092 25.8574344954
Fe 24.3995247951 47.3354465965 27.2642385769
Fe 25.8656605417 45.8637843149 25.8693329808
Fe 27.294664601 47.356054184 27.250850679
Fe 28.6525939686 45.8689872345 25.8070369396
Fe 30.1863997978 47.3133856389 27.2705155731
Fe 31.5393990635 45.8817126182 25.8772488718
Fe 32.959608934 47.3819736692 27.2707982227
Fe 34.4721547784 45.9543722979 25.8782634148
Fe 35.9211854655 47.4047259025 27.3191047417
Fe 37.3320651105 45.9008690523 25.7746179318
Fe 38.6998396369 47.3577242737 27.2125301358
Fe 40.1314365488 45.940383958 25.8010568543
Fe 41.5886504302 47.3113559399 27.3164378731
Fe 43.0862924631 45.8788306682 25.7757605239
Fe 44.542184586 47.3797267451 27.2581617959
Fe 45.9276806114 45.8816137738 25.8559556871
Fe 47.3814471873 47.4002354674 27.2866859353
Fe 48.737242368 45.8983331436 25.8629948593
Fe 50.2525218362 47.3088749382 27.2828141758
Fe 51.6535473464 45.9592486833 25.7894181328
Fe 53.1085794492 47.4096147916 27.2249269988
Fe 54.5401227755 45.9537487311 25.8128598315
Fe 55.9612924023 47.3867304655 27.3216262233
Fe 57.3807756132 48.7686678586 25.8034483224
Fe 1.4456296589 50.2815917138 27.2820798294
Fe 2.8443235679 48.7524213461 25.87521184
Fe 4.3529874402 50.2636666415 27.2179189339
Fe 5.7390589799 48.8289514306 25.8540401835
Fe 7.117766681 50.1885052956 27.3155751841
Fe 8.6132194042 48.7979161145 25.7805633638
Fe 10.0697826119 50.281594435 27.3142133415
Fe 11.4400440423 48.8346256441 25.8089169655
Fe 12.9690994131 50.2678407175 27.2581475805
Fe 14.3965260379 48.7784602322 25.864782795
Fe 15.7901384023 50.2421759848 27.3081437338
Fe 17.2344979182 48.7994920694 25.8198142156
Fe 18.6379172748 50.2723098514 27.2376587811
Fe 20.1353185846 48.735744859 25.8350762912
Fe 21.557060529 50.2572249669 27.3177935564
Fe 23.0174044402 48.7929623877 25.8252530985
Fe 24.3918355984 50.2380257374 27.245177809
Fe 25.8521260048 48.8443164458 25.8833587898
Fe 27.2848045517 50.2769318405 27.2887852324
Fe 28.6509836769 48.8245745879 25.8338718269
Fe 30.1037463331 50.1949266628 27.2262368349
Fe 31.5493266564 48.8046658223 25.7843408513
Fe 33.0497082784 50.2554227103 27.2650880198
Fe 34.4298630173 48.8337914174 25.8398996133
Fe 35.9030544096 50.2743099108 27.2668218551
Fe 37.3212347874 48.7775287009 25.7838076218
Fe 38.7847608668 50.2373290134 27.2725276996
Fe 40.2082668039 48.7835932598 25.8379626465
Fe 41.6485954216 50.2000529882 27.2460934862
Fe 42.9932274645 48.7936104824 25.8609214493
Fe 44.5332324319 50.2749099859 27.2303540096
Fe 45.8905002528 48.7739576284 25.7907264924
Fe 47.369327327 50.2797888938 27.309880542
Fe 48.7704714039 48.7599790099 25.7859212303
Fe 50.1923925227 50.2739250094 27.2794727817
Fe 51.6910459092 48.7992473685 25.8640861128
Fe 53.0547052836 50.2201418044 27.3226078071
Fe 54.5708972309 48.7466490403 25.8734139324
Fe 56.0066132392 50.1935810561 27.3109947461
Fe 0.0021482836 51.6592732221 25.8078278228
Fe 1.4558409437 53.1225087804 27.2150678189
Fe 2.8787326572 51.6062819228 25.8120757433
Fe 4.2787425865 53.101375259 27.2873130234
Fe 5.7118742776 51.6550175614 25.8769712145
Fe 7.1475031532 53.0743343437 27.2656545358
Fe 8.5965581659 51.7088661128 25.82249474
Fe 10.0558824444 53.0913154426 27.2915041068
Fe 11.5068125066 51.6768053914 25.8322400207
Fe 12.890173827 53.0507946054 27.2826060343
Fe 14.3608720972 51.6107132772 25.8052699429
Fe 15.8377630876 53.040951228 27.3104728915
Fe 17.2232925968 51.6375984106 25.8558605343
Fe 18.6784050956 53.1494462373 27.2203754021
Fe 20.0792163612 51.6719598561 25.7810641995
Fe 21.5050472456 53.047156483 27.2570657185
Fe 22.9973258838 51.642492491 25.8773962316
Fe 24.4392742402 53.1451336562 27.2639377455
Fe 25.869066895 51.653442058 25.8469682023
Fe 27.2280531873 53.0834663526 27.218215834
Fe 28.6650721575 51.6731998599 25.820752799
Fe 30.1592333422 53.1396360171 27.2204225024
Fe 31.6028017249 51.609938672 25.8511744497
Fe 33.0527197396 53.0935063573 27.3203128962
Fe 34.4076383226 51.7097341998 25.8124633703
Fe 35.8906255473 53.0476010376 27.3045319522
Fe 37.2756230747 51.6680186545 25.8851445093
Fe 38.7484623533 53.1268435417 27.2537728888
Fe 40.1301298422 51.6676445022 25.8776011536
Fe 41.6255274346 53.0578903375 27.2903145786
Fe 43.0923108238 51.6400583079 25.8607744286
Fe 44.5007408358 53.0637939591 27.215151902
Fe 45.933343083 51.6506444241 25.8344817138
Fe 47.3992587523 53.1371518072 27.274018064
Fe 48.7661626962 51.6995090776 25.8297715816
Fe 50.1701668449 53.0387093495 27.2553015689
Fe 51.7009252949 51.6513919341 25.8864897782
Fe 53.1065503226 53.0698152067 27.2658732355
Fe 54.5447461924 51.6327225465 25.7996598864
Fe 55.9347436503 53.057989262 27.2341763776
Fe 57.3426203712 54.527908104 25.8469360229
Fe 1.404163513 55.9431981731 27.2685088934
Fe 2.8562504496 54.5113322671 25.8121021962
Fe 4.3418422678 55.9928479949 27.3047249274
Fe 5.757178609 54.4829814601 25.8799265546
Fe 7.1408963978 56.0009968485 27.2335068373
Fe 8.6636950659 54.4820459047 25.8768257076
Fe 10.0082747787 55.9486401889 27.2610359248
Fe 11.4665430515 54.474103778 25.8011853861
Fe 12.9315830135 55.9370364829 27.2403658066
Fe 14.303968387 54.537697473 25.8012995663
Fe 15.7521429173 55.9090227109 27.3170969298
Fe 17.2719050016 54.5029962347 25.8161339151
Fe 18.6150612811 55.9781129603 27.2831873964
Fe 20.1236081164 54.5264753155 25.8173586171
Fe 21.5093064133 55.9578985442 27.2696146465
Fe 22.9248371767 54.5288066111 25.8228978678
Fe 24.3594900437 56.0017350243 27.2500524394
Fe 25.8793709881 54.502845254 25.8156817626
Fe 27.3188336675 55.9099816235 27.286794946
Fe 28.6916354031 54.5279275862 25.8535972424
Fe 30.0853370924 55.999162885 27.3128216937
Fe 31.5835591308 54.535470471 25.8137830856
Fe 33.061385692 55.9556509141 27.2432848251
Fe 34.4785134523 54.5141679372 25.8570601773
Fe 35.8302116237 56.0209329404 27.229929495
Fe 37.2831093528 54.4883439721 25.8713256486
Fe 38.7982061605 55.9837645734 27.3108617828
Fe 40.2374537805 54.5119849117 25.8290202209
Fe 41.5871678897 55.9109188984 27.237098569
Fe 43.0305534593 54.4785218891 25.8315612921
Fe 44.5118313092 55.9471981102 27.3056180616
Fe 45.8830116456 54.5309047999 25.8561162958
Fe 47.3899823198 56.0177612824 27.2391773955
Fe 48.8223075704 54.5127122785 25.7984710672
Fe 50.1996241785 55.914807691 27.2814324248
Fe 51.677251022 54.5757686413 25.8665853619
Fe 53.0579025566 55.9971510606 27.2915939472
Fe 54.5783155303 54.4957265759 25.8024346402
Fe 55.9981869284 55.9611502766 27.2556112462
Fe 0.0391061945 0.0212769036 28.6565233296
Fe 1.420664641 1.4146304396 30.1793413672
Fe 2.8641003823 57.3653796346 28.6755194205
Fe 4.3428545601 1.4473124231 30.0862348279
Fe 5.7917010448 57.3574694067 28.6540070112
Fe 7.1370474763 1.4922722027 30.1415416207
Fe 8.6674696304 57.3631898176 28.7385180599
Fe 10.0997538929 1.3963358815 30.0951446663
Fe 11.4540813076 0.0453253144 28.7210552815
Fe 12.949002724 1.4628563821 30.1663655815
Fe 14.3176468586 0.0408780665 28.7125112208
Fe 15.7492266291 1.4054026906 30.09375663
Fe 17.2767105135 0.0084569636 28.7390559199
Fe 18.607618927 1.4491897392 30.1334786777
Fe 20.1209076473 0.0429636443 28.7266835799
Fe 21.4975681595 1.4649259551 30.1376137776
Fe 22.9769460321 0.0531105142 28.6522182914
Fe 24.362905668 1.446454406 30.132385591
Fe 25.8858653936 0.031920933 28.6617083186
Fe 27.2642680647 1.4745711463 30.1569902399
Fe 28.7113319979 57.3928903376 28.7138668322
Fe 30.1234621879 1.4317654394 30.1764758823
Fe 31.6042438511 0.0452992531 28.6653640743
Fe 32.9717764652 1.4104677005 30.1569651531
Fe 34.4316879502 57.3669293214 28.6890322158
Fe 35.9151914819 1.4584511303 30.1607224901
Fe 37.2942879931 0.0129563963 28.7254784478
Fe 38.7937565112 1.4138214818 30.1618700932
Fe 40.1538598936 0.0512154652 28.6696092597
Fe 41.6316811248 1.4826682287 30.1628473992
Fe 43.003427247 0.0015391011 28.7069802102
Fe 44.4962647392 1.4285426905 30.0792112405
Fe 45.9278552891 0.027878176 28.6465520915
Fe 47.3826405537 1.4555770335 30.1585103663
Fe 48.8018536397 57.3661807864 28.6669623499
Fe 50.1961419634 1.4498782017 30.1727050875
Fe 51.6411032486 0.0048936697 28.6896417109
Fe 53.1095848206 1.3888540047 30.1713487717
Fe 54.5136166571 57.3516861083 28.7177068857
Fe 56.000983606 1.4349371623 30.1802254615
Fe 0.0348689617 2.861260838 28.7310364386
Fe 1.3911260234 4.2780383325 30.1045867646
Fe 2.8236043678 2.8284134421 28.7009000305
Fe 4.3220771181 4.3227448372 30.1892032253
Fe 5.7910736808 2.8472957053 28.6606142697
Fe 7.1513109139 4.3524207363 30.178352988
Fe 8.600554766 2.8734114307 28.6933780579
Fe 10.0436985252 4.2976686795 30.1129137817
Fe 11.5107238787 2.8670747559 28.7064537519
Fe 12.8880339698 4.3322186811 30.1807445427
Fe 14.3180267147 2.864168301 28.6490416695
Fe 15.7919348833 4.2713469875 30.0832234835
Fe 17.2140601441 2.8125613639 28.6893147414
Fe 18.7101211581 4.2671857191 30.1556269227
Fe 20.0430357724 2.8133639936 28.7292485895
Fe 21.5562410141 4.2852493423 30.1740307098
Fe 22.9386349092 2.8219724143 28.6655630278
Fe 24.4079922166 4.3575729722 30.115052904
Fe 25.8416647447 2.8679758506 28.6546801032
Fe 27.2733177959 4.3381582864 30.0873844032
Fe 28.6770118206 2.845605892 28.6806757079
Fe 30.1628022146 4.2516032045 30.1921055373
Fe 31.5368262591 2.8314467574 28.7335452236
Fe 32.9759935463 4.2896167382 30.1735121132
Fe 34.4964637952 2.8825938182 28.7105010007
Fe 35.8415238624 4.2992986203 30.1446931672
Fe 37.272984599 2.8390963189 28.6594489491
Fe 38.7900308388 4.2744716204 30.1531022694
Fe 40.169608241 2.8317601904 28.6687765096
Fe 41.6043327073 4.2704775896 30.1049812143
Fe 43.0652673558 2.9057808233 28.6497766148
Fe 44.5335276836 4.3436502094 30.1282104437
Fe 45.8846557556 2.8256133784 28.7052289992
Fe 47.3901037035 4.2515103598 30.154652474
Fe 48.7598693707 2.9050947208 28.7073738323
Fe 50.2683454706 4.3150785862 30.1489386353
Fe 51.6297411483 2.8192948605 28.6827395806
Fe 53.1046131072 4.3395219572 30.1171009856
Fe 54.5258242902 2.8289320286 28.6951634748
Fe 56.0001107811 4.3416738666 30.1858067948
Fe 57.3671466456 5.7049439698 28.7001939447
Fe 1.4876895923 7.1831055481 30.1032480279
Fe 2.895223873 5.7202425629 28.7055202297
Fe 4.3051490764 7.1833369195 30.0805059482
Fe 5.686313924 5.7356293941 28.7550617451
Fe 7.1864566533 7.1614376123 30.0888535857
Fe 8.6633198379 5.771963504 28.7104588523
Fe 10.043336418 7.1821771844 30.1919662421
Fe 11.5284283737 5.76947947 28.7291531101
Fe 12.8700730524 7.2251802413 30.0932647441
Fe 14.2928644567 5.7497351522 28.6647423741
Fe 15.8393489598 7.1758296653 30.1490205251
Fe 17.2568633617 5.7227675112 28.727821021
Fe 18.6149876222 7.2226687895 30.0911007786
Fe 20.1292955053 5.7847790094 28.657385649
Fe 21.4767600428 7.1708916353 30.0979681618
Fe 23.0140477264 5.6989592949 28.7505522838
Fe 24.3880247954 7.1179414618 30.0858701418
Fe 25.8068672969 5.7871222328 28.6908409839
Fe 27.2266120683 7.1429285539 30.1571521234
Fe 28.6899570219 5.6934489234 28.6438824426
Fe 30.1578430247 7.1408088378 30.0976037873
Fe 31.5580014355 5.6988716456 28.745356789
Fe 32.9557091707 7.2092885771 30.1005390427
Fe 34.4389380989 5.705607067 28.7540019878
Fe 35.9051830134 7.188597124 30.1057936037
Fe 37.3589097812 5.7738839449 28.6512516655
Fe 38.7942724926 7.1428229084 30.1019141952
Fe 40.1654742802 5.6843807259 28.6844771414
Fe 41.5700070955 7.1871013719 30.1248418751
Fe 43.0529111134 5.7015463291 28.6538231711
Fe 44.465018989 7.1464966826 30.1265648354
Fe 45.9771748921 5.744725868 28.703537525
Fe 47.3822069707 7.2107415127 30.174614224
Fe 48.8107783205 5.7493574257 28.7389363151
Fe 50.2435958111 7.1510123452 30.1803022789
Fe 51.7145244883 5.7886142463 28.6895305027
Fe 53.1135776267 7.2072557291 30.1525889864
Fe 54.5454735483 5.685687128 28.7079487587
Fe 55.9511699878 7.181690448 30.1173192195
Fe 57.3996461963 8.614983477 28.6967261691
Fe 1.3944054437 10.1020552192 30.0914987143
Fe 2.8235339569 8.6288322333 28.6551694903
Fe 4.2580388824 10.0608316304 30.1235643137
Fe 5.7859159911 8.5730692549 28.6917237455
Fe 7.1608783403 10.0155909164 30.1806194815
Fe 8.5859775742 8.6615694486 28.6820811799
Fe 10.0954752192 9.9972110282 30.1097609299
Fe 11.4277035349 8.6545905226 28.748981684
Fe 12.9388527323 10.0690602214 30.0885705735
Fe 14.3107290739 8.5709771065 28.7403786216
Fe 15.7774317516 10.0566706997 30.1339896706
Fe 17.2753960541 8.6254994929 28.6929138109
Fe 18.5980503824 9.9906606604 30.148318465
Fe 20.0542729038 8.586966326 28.7115367468
Fe 21.5406869731 10.1009085347 30.0913641706
Fe 23.0098453475 8.5608957274 28.7079124755
Fe 24.3842915149 10.0917242339 30.1787664639
Fe 25.807043434 8.6378696514 28.7365638982
Fe 27.2097023202 10.0306041903 30.083628582
Fe 28.6655148607 8.6287225247 28.7279153947
Fe 30.1685010799 10.0738676753 30.1060691283
Fe 31.6025295734 8.6503695557 28.6710131565
Fe 33.0462850512 10.0902039376 30.151699637
Fe 34.4563116958 8.6096469146 28.725926688
Fe 35.8755750319 10.0926946711 30.1226746242
Fe 37.3552187686 8.5832947074 28.6689856858
Fe 38.7651660905 10.0845463411 30.1209531306
Fe 40.1685022283 8.6319158932 28.6774534213
Fe 41.5746900119 10.0937516822 30.1713207781
Fe 43.0512282761 8.6170704551 28.6480010184
Fe 44.4745127952 10.0222274739 30.1693291285
Fe 45.9101130971 8.5562388367 28.7504296273
Fe 47.398459338 10.0710542168 30.1632728935
Fe 48.8022839572 8.5714223079 28.6788322464
Fe 50.1938902619 10.0870165014 30.172863347
Fe 51.7116853441 8.6606994394 28.6551167908
Fe 53.0823144384 10.0232525637 30.1733811772
Fe 54.5119925874 8.5948589662 28.6449149398
Fe 55.9786749234 9.9945896488 30.1039019191
Fe 57.3536062334 11.4802147353 28.6642289749
Fe 1.423040784 12.9132683761 30.182368593
Fe 2.9167202661 11.4386919632 28.6572121319
Fe 4.3086583963 12.9443877328 30.1327200991
Fe 5.7704840246 11.428362336 28.7108814011
Fe 7.2281212229 12.8694225928 30.1777443274
Fe 8.5559025139 11.5277937094 28.6864756268
Fe 10.0312360597 12.8679256844 30.1810338409
Fe 11.5197332232 11.4985317242 28.6944919994
Fe 12.8929509351 12.9576171872 30.0866204731
Fe 14.3526281266 11.4489226476 28.6456968647
Fe 15.82551563 12.9442326079 30.1153599196
Fe 17.2618777258 11.4663712979 28.7495160242
Fe 18.6517333395 12.9511058625 30.187994206
Fe 20.0886798479 11.4661211878 28.7233888506
Fe 21.5236244455 12.9071176343 30.1567995223
Fe 22.9149024054 11.4407706945 28.7195455346
Fe 24.414098114 12.8734482123 30.1734529802
Fe 25.7944645939 11.5103850445 28.7183512622
Fe 27.2103070779 12.9491688201 30.1291478354
Fe 28.7577902991 11.4992016094 28.7410664866
Fe 30.1649946387 12.9371089203 30.1863212784
Fe 31.5678619157 11.4507851786 28.7429501352
Fe 33.022487716 12.9714039874 30.1616311933
Fe 34.3906801127 11.5068816055 28.6491670129
Fe 35.8346174448 12.9653176509 30.1543585537
Fe 37.2761220343 11.5227501836 28.7161549626
Fe 38.8026499487 12.963049094 30.1524825584
Fe 40.1232999767 11.4442574598 28.7103983861
Fe 41.6654502115 12.8984690236 30.1135675447
Fe 43.0333748951 11.4697284056 28.739980727
Fe 44.4693934062 12.8717810488 30.1278558598
Fe 45.9192674701 11.5009811296 28.6852415484
Fe 47.4018424355 12.8926566097 30.1313514261
Fe 48.7561437069 11.424112526 28.656819768
Fe 50.1904256883 12.9099119534 30.1034015343
Fe 51.6582413478 11.500379299 28.7376077342
Fe 53.1100213931 12.8694177899 30.1334466605
Fe 54.5144621879 11.4400468951 28.7541950618
Fe 55.9704737823 12.9090457821 30.1761018343
Fe 57.3514806734 14.3517460207 28.6469245116
Fe 1.4512603218 15.7896227992 30.151049157
Fe 2.8298186233 14.3334672405 28.7428484081
Fe 4.3367251323 15.7567190164 30.1254204282
Fe 5.7357574775 14.3137089782 28.7021838486
Fe 7.1694173297 15.7999904947 30.0835621396
Fe 8.647721758 14.4028069514 28.7252383091
Fe 10.0586798607 15.7801923458 30.0869406903
Fe 11.4645706846 14.3576786377 28.7445828004
Fe 12.9232186135 15.796698079 30.168016417
Fe 14.3316431393 14.3551829608 28.691191443
Fe 15.8231119757 15.8032602854 30.1567766852
Fe 17.2433202248 14.3541002644 28.6673056473
Fe 18.6999111005 15.7828942987 30.1473074997
Fe 20.1175934608 14.3406332139 28.7374434263
Fe 21.4836284374 15.7724046391 30.1470703915
Fe 22.9863128598 14.3795984721 28.7015496625
Fe 24.3413499116 15.8170747801 30.1034841215
Fe 25.8415653069 14.30534385 28.6525246609
Fe 27.2866783326 15.7725826829 30.1146744256
Fe 28.6945559838 14.4022940174 28.6752932636
Fe 30.142106095 15.7758896496 30.1278730522
Fe 31.5203758605 14.3194885166 28.7427900602
Fe 33.0324985585 15.8022316037 30.1459615197
Fe 34.4544180685 14.365376049 28.7273324699
Fe 35.908732409 15.7393587792 30.1808122672
Fe 37.3150100599 14.3414776666 28.7205684693
Fe 38.705879976 15.8291271341 30.1207384511
Fe 40.1520107638 14.3702215993 28.6512612867
Fe 41.615672535 15.8108557137 30.1131616921
Fe 43.023677031 14.3532134472 28.6477550967
Fe 44.4392542458 15.7839167723 30.1139451123
Fe 45.8727133121 14.3047261939 28.7006105956
Fe 47.4020809699 15.7772347963 30.1650007322
Fe 48.8455828635 14.3792804697 28.7284043412
Fe 50.2819973016 15.837234631 30.1083421843
Fe 51.6959725716 14.3307562344 28.6777944525
Fe 53.0767909967 15.8419062963 30.1151168119
Fe 54.5580054509 14.2988431739 28.7466363886
Fe 55.9313466172 15.735501691 30.1575770196
Fe 57.3589444885 17.275563068 28.6996764887
Fe 1.408780001 18.6393140682 30.1678228044
Fe 2.9262755728 17.1909112354 28.7149866123
Fe 4.298594982 18.6730658349 30.0936857324
Fe 5.7176770799 17.1698886046 28.686850201
Fe 7.1557512086 18.7090686756 30.1180830389
Fe 8.5723404114 17.1893398651 28.6971684097
Fe 10.0822209238 18.6515986268 30.1169544585
Fe 11.4576991503 17.2057303103 28.6612301944
Fe 12.967846118 18.7010434419 30.1551822415
Fe 14.3775959296 17.240352753 28.7371334387
Fe 15.8133264905 18.6372860478 30.1234398975
Fe 17.2154072668 17.2588790138 28.6825397209
Fe 18.6930178928 18.6961729343 30.1880489249
Fe 20.1126267464 17.1755931005 28.7429585574
Fe 21.5322559786 18.6968967658 30.0878382797
Fe 22.9404159815 17.2777441406 28.7232333291
Fe 24.3402601391 18.69853711 30.1131938834
Fe 25.8191013137 17.2579145115 28.6493472436
Fe 27.2655875733 18.6818095431 30.1645210013
Fe 28.6430510992 17.2273443069 28.7424965141
Fe 30.1313448073 18.6239028426 30.130657167
Fe 31.6141133504 17.166558999 28.7336267245
Fe 32.972365167 18.6123345425 30.1893310733
Fe 34.4788408909 17.2382955102 28.7315900896
Fe 35.8916322034 18.6636722001 30.136667614
Fe 37.3012533023 17.2033950019 28.7459860933
Fe 38.7569004174 18.6015331835 30.0905916567
Fe 40.1646633872 17.2679019107 28.7392803908
Fe 41.5951283465 18.6981584319 30.0982407273
Fe 43.103845527 17.1811840612 28.6479362175
Fe 44.4499377657 18.6233316115 30.1089947332
Fe 45.955038258 17.1969445662 28.6672472253
Fe 47.4073795897 18.6968253734 30.1430948756
Fe 48.7648754585 17.1951459783 28.6860259206
Fe 50.2307643963 18.6326768875 30.1518201473
Fe 51.6658811897 17.192980151 28.7188549257
Fe 53.1061371252 18.6777266637 30.1702616662
Fe 54.478461205 17.2757013721 28.7277293683
Fe 56.0012378448 18.7052676735 30.1479997781
Fe 57.3797450668 20.0531749255 28.7453542448
Fe 1.4555016249 21.5655245575 30.1197475762
Fe 2.8960590989 20.1242744605 28.6604303938
Fe 4.3097098589 21.4902241408 30.1553046195
Fe 5.7079654641 20.0330115444 28.7132607955
Fe 7.1567805699 21.5174426684 30.1805017932
Fe 8.6132950233 20.0789600566 28.7545602208
Fe 9.9914721852 21.5211950297 30.0788086045
Fe 11.472236177 20.1195705339 28.6891340995
Fe 12.8863192861 21.4922253419 30.1463407015
Fe 14.3458324993 20.1052066319 28.6693304302
Fe 15.7659441573 21.5521608377 30.1142394963
Fe 17.2179887256 20.1006941352 28.6585358053
Fe 18.6441492015 21.5551348053 30.1118751847
Fe 20.0884649023 20.0920887088 28.6566410428
Fe 21.4780144876 21.5481906495 30.1017069946
Fe 22.9918523837 20.0730459902 28.7038978003
Fe 24.3891553426 21.5555488501 30.1617570074
Fe 25.8214851279 20.0331460131 28.7046673882
Fe 27.2428603614 21.49774696 30.1854435944
Fe 28.7331598083 20.1377841732 28.6432875252
Fe 30.1277550357 21.5161556721 30.1373520225
Fe 31.5738388171 20.0587279844 28.7220086563
Fe 33.0280502741 21.5031160792 30.1723531971
Fe 34.414170866 20.0636103743 28.6673355065
Fe 35.8766551139 21.5568138567 30.1846728666
Fe 37.28098056 20.1357007374 28.7465293075
Fe 38.6956509523 21.5181743456 30.1106211787
Fe 40.1758392766 20.0829835569 28.739993636
Fe 41.6652003828 21.5127699375 30.1102695341
Fe 43.1042683985 20.1031950199 28.6709358743
Fe 44.4528237321 21.4677944202 30.0969541512
Fe 45.8679609813 20.1272853661 28.6873631683
Fe 47.3522221197 21.4831624241 30.1523012792
Fe 48.7605837379 20.1369026265 28.684496937
Fe 50.2773826024 21.4833414075 30.1881978473
Fe 51.6569477107 20.0888279472 28.7189086755
Fe 53.0726303595 21.5115622691 30.1168939545
Fe 54.5825175796 20.1112681603 28.6892534246
Fe 55.9934983356 21.5792428059 30.1685379777
Fe 57.3544672705 22.9941046517 28.7184142178
Fe 1.4676536486 24.383202489 30.0822385371
Fe 2.8360067065 22.9869539464 28.7435308185
Fe 4.3396431527 24.3601728386 30.1709860337
Fe 5.7621128644 22.9297391075 28.6943938973
Fe 7.1330125254 24.4185446178 30.1408333314
Fe 8.5960584015 23.0035959606 28.6822412794
Fe 10.0381462036 24.3744566148 30.175578844
Fe 11.4781235728 22.9625161748 28.668402978
Fe 12.9418814282 24.3709686769 30.1897058262
Fe 14.3346039327 22.9816776471 28.6982284346
Fe 15.7377701296 24.4320616575 30.1702132301
Fe 17.1955298083 22.9328005192 28.6465019136
Fe 18.6267740042 24.4503819391 30.1638547766
Fe 20.1385587457 22.9299290471 28.6426262976
Fe 21.5737664176 24.4404651254 30.1233191791
Fe 22.9588255658 22.996498857 28.6932867198
Fe 24.3761130407 24.3667017763 30.1103788005
Fe 25.8352863838 22.9876349827 28.7273802583
Fe 27.2576800006 24.3729693586 30.1243162522
Fe 28.654168485 22.939799329 28.7073918777
Fe 30.1831145068 24.3798176517 30.0789037024
Fe 31.6128053257 22.9972065639 28.7259396785
Fe 33.0089425075 24.4029801797 30.1089655508
Fe 34.3830667311 22.9207238987 28.6797352663
Fe 35.9288225553 24.4180311279 30.1137742312
Fe 37.2690953453 22.9647933492 28.7488251893
Fe 38.7917450768 24.3979226404 30.0899079141
Fe 40.1824038196 22.9394375796 28.6849856623
Fe 41.6306019014 24.4199801131 30.1843122367
Fe 43.0219552612 22.9355038082 28.6675575385
Fe 44.4418382869 24.3947670542 30.1361457661
Fe 45.9639900911 22.9536799175 28.7260149063
Fe 47.3908554116 24.3738411016 30.11715682
Fe 48.7788187 23.0125374996 28.7078192639
Fe 50.2332417149 24.4324656863 30.1268959109
Fe 51.648952468 22.9297952756 28.7034992154
Fe 53.0746015462 24.4156809509 30.1468804037
Fe 54.5657899909 22.9549497931 28.6608565143
Fe 55.9212406454 24.422112852 30.153291155
Fe 57.3638599772 25.8367683321 28.6468366757
Fe 1.4207313042 27.2458651581 30.0788200313
Fe 2.8270460937 25.8320788371 28.6902916212
Fe 4.2580637532 27.2674902013 30.18659543
Fe 5.7806856748 25.8081978745 28.7026810397
Fe 7.128619743 27.3067376409 30.1454946934
Fe 8.5821887056 25.8786375086 28.6611770712
Fe 10.0327364952 27.2964399953 30.1698385503
Fe 11.5244338225 25.8058443612 28.6631925057
Fe 12.8966701143 27.2985526411 30.1537851617
Fe 14.3307143269 25.8003317636 28.7344141911
Fe 15.818678662 27.2846247763 30.1372690985
Fe 17.2738724621 25.7834357099 28.6444715701
Fe 18.6964969098 27.2781847192 30.1787828751
Fe 20.0620344466 25.8754735951 28.6704789101
Fe 21.516357291 27.2810738848 30.1782745994
Fe 22.9554227574 25.7872265772 28.6430493448
Fe 24.4341528979 27.2314980097 30.1632753114
Fe 25.779452508 25.8518358747 28.7158834605
Fe 27.2344920393 27.269685703 30.1391428663
Fe 28.6909727224 25.8597498161 28.6665571734
Fe 30.1745800527 27.2591938392 30.1197414351
Fe 31.5408603926 25.7745818369 28.7047665254
Fe 33.0152280765 27.2746418013 30.0895464611
Fe 34.4921771205 25.8016474387 28.7143311713
Fe 35.8987003441 27.2355871567 30.1320291752
Fe 37.3540810378 25.7871587573 28.6702941958
Fe 38.7291615783 27.2160081905 30.1738342097
Fe 40.1876313162 25.8786255755 28.7253125103
Fe 41.6684585587 27.2608739718 30.1215287818
Fe 43.0743279865 25.8256676695 28.7010038793
Fe 44.5168094442 27.3138351049 30.1293475144
Fe 45.920373329 25.8818976995 28.6951654556
Fe 47.3332806356 27.2736007308 30.1750819639
Fe 48.7411564407 25.7950754671 28.6828203475
Fe 50.2038762781 27.2233355123 30.1516050906
Fe 51.6875694546 25.7980996468 28.7216051026
Fe 53.0958437252 27.2475539222 30.1824242999
Fe 54.565275883 25.7744171092 28.7102674736
Fe 55.9568773504 27.261324823 30.174029423
Fe 57.386727974 28.714441631 28.7494670508
Fe 1.4505446588 30.1014121232 30.1833054387
Fe 2.8936148843 28.6542906557 28.6721275784
Fe 4.3519651858 30.1676058613 30.1804266833
Fe 5.7536924969 28.7224361384 28.659114797
Fe 7.166781067 30.1837698133 30.0870226345
Fe 8.5738339106 28.6744653397 28.6458931507
Fe 10.0596455936 30.1332335797 30.1848110773
Fe 11.4535497745 28.6688884889 28.6491814645
Fe 12.8827302968 30.0868576782 30.1036048658
Fe 14.3368580852 28.7144727056 28.7453169075
Fe 15.7428398132 30.1128545382 30.0924688339
Fe 17.2642427795 28.7455899126 28.7365320908
Fe 18.6127273122 30.1083582374 30.1158551075
Fe 20.0457729023 28.7026517552 28.7157294994
Fe 21.4925729311 30.1076212196 30.1487436971
Fe 22.9444201325 28.6754837576 28.6607440693
Fe 24.4511708093 30.1171739613 30.1785499673
Fe 25.8715587009 28.6858521616 28.6771672187
Fe 27.2499924196 30.1729354322 30.1743547639
Fe 28.700876359 28.7547271333 28.7488575577
Fe 30.0894135201 30.1706793578 30.1537136157
Fe 31.5803597263 28.7397187103 28.7097860948
Fe 32.9493570166 30.1831271654 30.0903998474
Fe 34.4902892954 28.6933018235 28.7410770181
Fe 35.9285865109 30.0961187008 30.1350882158
Fe 37.3051535254 28.7009035604 28.6693727866
Fe 38.7975737954 30.1334954315 30.1253068549
Fe 40.2175209448 28.7353512533 28.7382173515
Fe 41.609379541 30.1005559707 30.1090319889
Fe 43.0353967819 28.6903182105 28.6438200148
Fe 44.532611195 30.0801130756 30.1608269099
Fe 45.9112797363 28.6897085226 28.703223347
Fe 47.3600679564 30.1336683005 30.1771417307
Fe 48.7325649082 28.6488254707 28.6828569361
Fe 50.1908415483 30.16350452 30.0790555543
Fe 51.7087064497 28.7134212146 28.6593565993
Fe 53.1299173315 30.1105313834 30.107854561
Fe 54.5391724865 28.6602667917 28.6755603976
Fe 56.0089496746 30.1835813839 30.1427310698
Fe 57.392618865 31.513947344 28.7378597697
Fe 1.3933996813 33.0127575049 30.1665522734
Fe 2.8396197304 31.5476627778 28.6740960059
Fe 4.2850437287 32.9977310186 30.1132324247
Fe 5.6968431825 31.532753816 28.6785104927
Fe 7.128661749 33.0058490829 30.1753234756
Fe 8.647190725 31.5223493624 28.7199580227
Fe 10.0927360391 33.0374153879 30.1892466914
Fe 11.5297365055 31.5645294322 28.7354935385
Fe 12.9153734384 33.0056319754 30.1455834959
Fe 14.3662535166 31.5332801486 28.7553969812
Fe 15.7522914424 32.9837611538 30.1308365025
Fe 17.2002431279 31.5511556014 28.6873252818
Fe 18.7125236066 32.9942467147 30.1006828291
Fe 20.0763069839 31.6208085824 28.6564146401
Fe 21.5078769004 32.9876939814 30.1453500824
Fe 22.9115271519 31.5558310578 28.6863391648
Fe 24.4377606274 33.0127542874 30.1883713719
Fe 25.8000931964 31.5870363797 28.6478231564
Fe 27.2939597407 32.9573972572 30.1400568305
Fe 28.7198389297 31.5438311468 28.6608762468
Fe 30.1490437072 33.0026232794 30.1669098936
Fe 31.5483411114 31.5396845676 28.7044821953
Fe 32.9923033762 32.9967299695 30.1478177657
Fe 34.3857795468 31.5612507496 28.7421549117
Fe 35.8734931252 33.016330943 30.0985548856
Fe 37.3076270938 31.6093158489 28.7122711568
Fe 38.6887693597 32.961060038 30.0774687467
Fe 40.1302497559 31.6238739522 28.6583633524
Fe 41.6031485811 32.9796529171 30.1642156
Fe 43.0115383459 31.5196182554 28.6795600731
Fe 44.5184375221 32.9990419102 30.1266659513
Fe 45.9245567066 31.6154945863 28.6989240626
Fe 47.3256924064 32.9886245882 30.1808336746
Fe 48.7487736156 31.5887944855 28.6558148926
Fe 50.191442737 32.947849308 30.1222991577
Fe 51.627655106 31.6116628499 28.7148812916
Fe 53.1330385089 33.0518059549 30.1595267749
Fe 54.5737813812 31.5561921835 28.6521507077
Fe 55.9918713717 33.0476419518 30.126075693
Fe 0.029134704 34.4091152056 28.6736803323
Fe 1.4349147987 35.9296744092 30.1224215084
Fe 2.8933254311 34.3854442945 28.6815537852
Fe 4.3329538325 35.822570269 30.1230213148
Fe 5.7375153768 34.4735697905 28.7131779122
Fe 7.201026908 35.8734176271 30.1044208005
Fe 8.5670281292 34.4760940807 28.7282203656
Fe 10.087295222 35.9162764976 30.0987147345
Fe 11.5038492254 34.4716783771 28.7343009034
Fe 12.9409818403 35.904356423 30.1710603062
Fe 14.3802587025 34.4313074346 28.715004197
Fe 15.7966985716 35.8804110562 30.1584218258
Fe 17.2002440559 34.4729768662 28.7227648157
Fe 18.6978988452 35.8883808773 30.1208323086
Fe 20.0342892041 34.4271892964 28.7429649208
Fe 21.5650735823 35.8419817199 30.1129053468
Fe 22.9540538759 34.3886237777 28.6801225626
Fe 24.3442822326 35.8569154645 30.1031256894
Fe 25.8357390864 34.4049755558 28.6950057329
Fe 27.2288710341 35.8825127719 30.0944941216
Fe 28.7189972881 34.4759225048 28.697143373
Fe 30.0839730023 35.8616879936 30.0993474411
Fe 31.5547963038 34.4911614305 28.7169286975
Fe 32.9896436674 35.8749729357 30.186342546
Fe 34.4541480964 34.3984576398 28.720327826
Fe 35.8355626433 35.8979745206 30.1494483587
Fe 37.344734294 34.4480580622 28.6546547992
Fe 38.6976356067 35.8443879375 30.1125765761
Fe 40.1384722871 34.4582130416 28.6792589187
Fe 41.5581116436 35.9300814224 30.1655333933
Fe 43.0041454305 34.3922316774 28.7372937307
Fe 44.4921933068 35.8715834212 30.1299947193
Fe 45.9337401737 34.4615871034 28.6793194281
Fe 47.3751409839 35.899421509 30.1797363016
Fe 48.7753007995 34.4247144819 28.7410407402
Fe 50.2204053141 35.876566667 30.1719899299
Fe 51.6563791968 34.4841400636 28.6531652412
Fe 53.1242796955 35.8412159607 30.1475111866
Fe 54.5728525006 34.4828000213 28.6852279863
Fe 55.9752663059 35.8685615841 30.152449415
Fe 57.3715211428 37.3047921584 28.7500301208
Fe 1.4774085149 38.726213547 30.129160207
Fe 2.8278294753 37.2729907173 28.6574226564
Fe 4.2545402877 38.7640313903 30.1148769064
Fe 5.7622279281 37.3597929625 28.6596178601
Fe 7.2085393873 38.7320695009 30.1317452284
Fe 8.5767925026 37.33871567 28.7134750189
Fe 10.0984295148 38.8001614064 30.1511793268
Fe 11.471605577 37.36085443 28.734455621
Fe 12.950416431 38.7554003914 30.1595402375
Fe 14.3095379474 37.2626008411 28.6774712425
Fe 15.8276918609 38.7311893242 30.152805101
Fe 17.244172709 37.3251111262 28.6857320515
Fe 18.6370894248 38.7014792125 30.1309769894
Fe 20.1357176455 37.3362141493 28.6538189279
Fe 21.4772489962 38.7889415139 30.1150355441
Fe 22.9697694183 37.3092367782 28.7455442507
Fe 24.4412909237 38.7171588316 30.1534685286
Fe 25.8377137646 37.2606425479 28.7155998666
Fe 27.2772165406 38.7983089801 30.1278585737
Fe 28.7172727728 37.3560875431 28.681513045
Fe 30.1679326605 38.6899494113 30.1084630528
Fe 31.6258570352 37.2867557146 28.6680801014
Fe 33.0438771251 38.7712487721 30.1474571869
Fe 34.4339793176 37.2633378458 28.6424857297
Fe 35.9006091527 38.690892393 30.103453206
Fe 37.3465075075 37.3010397499 28.6806383369
Fe 38.7162014487 38.7739137288 30.1452089569
Fe 40.1737288901 37.3030057066 28.7363295921
Fe 41.6337531301 38.7899178011 30.0889795165
Fe 43.0691478172 37.3332341059 28.6910403195
Fe 44.4645315078 38.7925095195 30.0850203411
Fe 45.9216297421 37.2531812738 28.7277365583
Fe 47.3090053739 38.8007743575 30.1268916397
Fe 48.7975064093 37.366474583 28.6890091989
Fe 50.1792413699 38.7852768895 30.1314741304
Fe 51.6206516513 37.2973511065 28.6854649433
Fe 53.0839048449 38.719255739 30.1230348918
Fe 54.5754256456 37.3615941907 28.6835386353
Fe 55.9135319724 38.7357569234 30.0921858946
Fe 57.343382782 40.1445086287 28.7174940671
Fe 1.4401034272 41.6289194493 30.1505605405
Fe 2.9186831659 40.1478809715 28.6569422178
Fe 4.2503263415 41.6207638106 30.1018201446
Fe 5.7791186731 40.1551743733 28.6478402482
Fe 7.177730514 41.6283650077 30.1264194445
Fe 8.6635105585 40.1241330004 28.7038026825
Fe 10.0144201976 41.5689928578 30.0804616946
Fe 11.4931873806 40.2266553224 28.7424589661
Fe 12.9147777043 41.6605454944 30.1256855678
Fe 14.3351989194 40.1801504686 28.7334466641
Fe 15.7408146626 41.6347843499 30.1497155625
Fe 17.2604324797 40.1712026196 28.7551986729
Fe 18.6425900451 41.5627520243 30.1231860177
Fe 20.060753849 40.1575734387 28.7076252762
Fe 21.5178649313 41.658751375 30.1074205285
Fe 22.968433185 40.1410346992 28.6827489475
Fe 24.3915037431 41.5768624922 30.1815682679
Fe 25.8029663315 40.177029234 28.7377837944
Fe 27.2218476462 41.6632676122 30.1357939072
Fe 28.7293776617 40.1722541639 28.7241217034
Fe 30.1362950098 41.6242010024 30.0885298584
Fe 31.5874118031 40.2150787471 28.7562346333
Fe 32.9776035295 41.6358615721 30.145759109
Fe 34.4263137525 40.2207419979 28.7466427119
Fe 35.8655997365 41.619927268 30.1104101781
Fe 37.3213317119 40.1707305732 28.7227388582
Fe 38.79564652 41.6454049039 30.1017819481
Fe 40.2247896127 40.1700746477 28.6743829274
Fe 41.6024169577 41.5774835604 30.1541421182
Fe 43.0669990261 40.1832515788 28.7430682809
Fe 44.5323028586 41.6485887233 30.0819433059
Fe 45.9699933321 40.1900178685 28.682321389
Fe 47.3591863226 41.5900390107 30.1216130632
Fe 48.8094357059 40.2179225278 28.7265568332
Fe 50.2119524444 41.6151889047 30.0962166181
Fe 51.6405459624 40.1992674741 28.7511536426
Fe 53.1006171287 41.5629791016 30.1069578026
Fe 54.4827313219 40.1740007842 28.745229067
Fe 55.9571603684 41.6630550252 30.1883664673
Fe 0.0129236601 43.0457286787 28.737753992
Fe 1.4210613098 44.455232442 30.0851740907
Fe 2.8972562208 42.9991443491 28.650496181
Fe 4.2778808734 44.5256880532 30.1476022975
Fe 5.6967503056 43.0836517658 28.6806422004
Fe 7.2069095954 44.4613884772 30.1552508352
Fe 8.5574264005 43.0661497978 28.6705708015
Fe 10.0666326079 44.477219892 30.0921712631
Fe 11.4306688524 43.0201159892 28.6975909586
Fe 12.8958987054 44.4579095523 30.184071154
Fe 14.3597207223 43.0512212085 28.7545881521
Fe 15.7622841361 44.4638738529 30.1309429058
Fe 17.2185913467 43.0988483532 28.7108180046
Fe 18.676688214 44.4903175343 30.1753468589
Fe 20.1289917194 43.0866300656 28.6951034479
Fe 21.5165653618 44.521796887 30.1427124703
Fe 22.9995428514 43.0895081794 28.6611455069
Fe 24.4450431156 44.4518820798 30.0925733329
Fe 25.7973753721 43.0649056561 28.696647397
Fe 27.2770283109 44.502305973 30.1291344446
Fe 28.7508518546 43.1008254622 28.6973621996
Fe 30.0863671942 44.4514859054 30.1530522646
Fe 31.5169451055 43.0233868157 28.7349787319
Fe 33.0371125458 44.4814486293 30.0843167378
Fe 34.4192332451 43.0091484879 28.7256647834
Fe 35.8205228349 44.4855890531 30.0962575384
Fe 37.3529572402 43.1040417277 28.7312095168
Fe 38.7580615622 44.4515213608 30.080090637
Fe 40.2105336438 43.0269812907 28.7379377634
Fe 41.5728951637 44.4504974893 30.114113402
Fe 43.0396973073 43.0981199362 28.7397824924
Fe 44.4400743343 44.4835264101 30.1750036249
Fe 45.8675794396 43.0463951854 28.6795022171
Fe 47.3681864068 44.4786928398 30.1900659051
Fe 48.8243999255 43.0108135624 28.7508725227
Fe 50.1811555774 44.4548110355 30.103003151
Fe 51.6745960556 43.0751415126 28.7400798293
Fe 53.1022216618 44.4706148458 30.1264548885
Fe 54.5187845288 43.0238828314 28.7515164153
Fe 55.9106232733 44.5028585177 30.147386189
Fe 57.3700204761 45.8964708792 28.6738811667
Fe 1.4366964183 47.361850004 30.1000458138
Fe 2.816242621 45.9003560648 28.7079558741
Fe 4.2654173527 47.3260599224 30.0957758635
Fe 5.7804169569 45.8749110019 28.676647357
Fe 7.1454806391 47.4020049283 30.1680309035
Fe 8.6192313138 45.8888952193 28.7477982218
Fe 10.0008820267 47.3199514111 30.1054124947
Fe 11.5246894686 45.8778607598 28.7225563681
Fe 12.9614543789 47.3804419886 30.0989857077
Fe 14.3644557421 45.8829192533 28.7178008818
Fe 15.7987274629 47.3383256259 30.1715899374
Fe 17.1764655237 45.886885709 28.7108045682
Fe 18.6808915898 47.3995720705 30.0884887426
Fe 20.0661093077 45.9659786423 28.7365553696
Fe 21.4982334209 47.3744318521 30.1797084513
Fe 22.9871578499 45.9299774375 28.6552859858
Fe 24.345434963 47.34099863 30.1156740205
Fe 25.8726312745 45.9196244247 28.7427060946
Fe 27.2268390001 47.3536130892 30.1194217921
Fe 28.6427710207 45.8845839899 28.741458571
Fe 30.0972065031 47.3564654619 30.1601565894
Fe 31.5715988136 45.925482276 28.6988204522
Fe 33.0430911773 47.353804984 30.1447554308
Fe 34.4408937485 45.8673566956 28.7264806818
Fe 35.889585271 47.3573336888 30.1342041397
Fe 37.3101159776 45.9359310961 28.734180186
Fe 38.6895350868 47.3520651387 30.1509798887
Fe 40.2158136178 45.9734452304 28.7211835429
Fe 41.633647496 47.333832697 30.0877494438
Fe 43.034879581 45.9587400864 28.7432894843
Fe 44.4943945955 47.4057080311 30.1537237235
Fe 45.9212208606 45.9410710373 28.7308922047
Fe 47.3202273166 47.3138038879 30.1149140991
Fe 48.8113244291 45.9105437042 28.7399701957
Fe 50.2059755934 47.3964972435 30.1882143096
Fe 51.6594329587 45.9034337396 28.6449971677
Fe 53.0413434954 47.3160135193 30.1540710902
Fe 54.4970561798 45.9013211935 28.6832233586
Fe 55.9289768202 47.3438109958 30.1158521325
Fe 57.3554389499 48.7919958102 28.6962444148
Fe 1.4118392889 50.2338276834 30.1284214012
Fe 2.8866082549 48.8092928273 28.669005519
Fe 4.2849750705 50.2768364387 30.1766450886
Fe 5.7597001874 48.8226377738 28.6537341736
Fe 7.18063638 50.1837771427 30.1814912543
Fe 8.6516589253 48.8075179405 28.6894302901
Fe 10.0336503098 50.1805539211 30.1797401228
Fe 11.5069573291 48.8329795904 28.7185341169
Fe 12.9351735233 50.2308130459 30.1582770145
Fe 14.2992620911 48.7575454064 28.7061021637
Fe 15.8131228526 50.2604943343 30.1295690241
Fe 17.2007165661 48.7873514494 28.6595640349
Fe 18.6362115594 50.2710443092 30.1305177867
Fe 20.1095479782 48.7337838911 28.7493455067
Fe 21.5398329145 50.2488242813 30.0883772452
Fe 22.9723745364 48.8453187131 28.7502558167
Fe 24.4308419307 50.2522224613 30.1088828429
Fe 25.8294164824 48.7957189344 28.6852118635
Fe 27.2847986636 50.1788368921 30.1763317426
Fe 28.6519201076 48.7776042115 28.7006227364
Fe 30.1764423876 50.2477323594 30.1045850023
Fe 31.5918739917 48.7534441687 28.6730449238
Fe 33.0086070267 50.2648378093 30.1689130166
Fe 34.3877987892 48.756086575 28.6448343835
Fe 35.8749888948 50.2553065148 30.091437321
Fe 37.3113699207 48.7601464768 28.7338809171
Fe 38.7826896428 50.258772599 30.0792437796
Fe 40.1489277109 48.7353355918 28.6840295977
Fe 41.5841535342 50.1816145633 30.1194232103
Fe 43.0095627543 48.7969524913 28.7522012898
Fe 44.4787989155 50.2301126309 30.1155497729
Fe 45.8683617515 48.7837479592 28.6458847285
Fe 47.3474416506 50.2810362309 30.0978777197
Fe 48.7626138424 48.8075834287 28.697883048
Fe 50.2034561081 50.2626301127 30.1399429395
Fe 51.654492083 48.7794667747 28.7189611369
Fe 53.0849222945 50.2570746771 30.1052732672
Fe 54.5531592025 48.8463190312 28.6782918331
Fe 55.9376276911 50.1753039972 30.134351857
Fe 57.3924262705 51.6203729967 28.7209267142
Fe 1.4422512322 53.1485922793 30.1628965108
Fe 2.9136736094 51.6481062358 28.67489749
Fe 4.3375180206 53.114226689 30.1368898607
Fe 5.7319815468 51.7148374516 28.7456133887
Fe 7.2044610788 53.0800230522 30.1834765376
Fe 8.5689489813 51.6410145034 28.65460287
Fe 10.0122229181 53.1435129179 30.1594488877
Fe 11.456877875 51.6989916961 28.6754844666
Fe 12.9574749904 53.0879085187 30.1335717087
Fe 14.3472142244 51.6087921545 28.6890186343
Fe 15.760198868 53.0542780214 30.1786075001
Fe 17.1654866909 51.677529663 28.6888687776
Fe 18.7083723999 53.1098342619 30.167370397
Fe 20.1435907701 51.7016140177 28.6867141107
Fe 21.5707420393 53.1251874408 30.1111516478
Fe 22.9486734652 51.698419859 28.7271268319
Fe 24.4485414585 53.069954727 30.0981964506
Fe 25.8181579274 51.6876029081 28.6558491534
Fe 27.2569632108 53.1083225664 30.1111570851
Fe 28.6877090157 51.6672424357 28.7353343297
Fe 30.0792915536 53.0699754754 30.1821923639
Fe 31.5709078619 51.7046962974 28.6963919472
Fe 32.9826880005 53.1238124574 30.1813072298
Fe 34.4123567321 51.7159872728 28.7083960996
Fe 35.8857262581 53.0459070341 30.1694465439
Fe 37.3429684174 51.7059987462 28.6793286425
Fe 38.7761406228 53.0485268865 30.1690533314
Fe 40.2079324949 51.6474092435 28.7272728098
Fe 41.6333224553 53.1051710533 30.1190654589
Fe 43.0871456492 51.7102520623 28.6982838279
Fe 44.5178320789 53.1361084864 30.1063022521
Fe 45.9252930359 51.6629952379 28.6492317617
Fe 47.3860994553 53.1240664148 30.1343405116
Fe 48.8147844349 51.6331689534 28.7085236924
Fe 50.2283830866 53.0752690034 30.1148220563
Fe 51.657239901 51.6135545808 28.667752392
Fe 53.1249246869 53.1274764652 30.1229650017
Fe 54.5609083524 51.6282149861 28.6488755452
Fe 55.968801972 53.0395933127 30.1038785888
Fe 0.0265179844 54.543082346 28.7458797326
Fe 1.4160484903 55.9759083219 30.1051424709
Fe 2.8841855508 54.5724887899 28.7129665662
Fe 4.3187834585 56.0053378908 30.1054084778
Fe 5.6953042787 54.5721108322 28.6437408636
Fe 7.1678109305 55.9477685028 30.0828189871
Fe 8.6570493715 54.5829355091 28.6445305808
Fe 10.081837224 55.9547424513 30.0795290525
Fe 11.4797314206 54.5183154041 28.7134478987
Fe 12.9378045531 55.9342371822 30.1227229151
Fe 14.4003267106 54.5097303384 28.6872164827
Fe 15.8345945565 55.9203479519 30.1263159907
Fe 17.2736537246 54.5204097681 28.7048764874
Fe 18.6194452834 55.9313387072 30.1445541256
Fe 20.0356115195 54.4958924139 28.7494465912
Fe 21.5269000317 55.9669773407 30.1676164781
Fe 22.9646738349 54.4754429545 28.667654009
Fe 24.4028035531 55.9241401255 30.0805442534
Fe 25.842679395 54.5077457354 28.7297687819
Fe 27.2902582895 55.9285453535 30.1772234288
Fe 28.672354549 54.5048750232 28.6519865626
Fe 30.1872979434 55.98580863 30.168350533
Fe 31.5372631608 54.5013269169 28.7124575734
Fe 32.9573125784 55.9169306478 30.1021492811
Fe 34.4762174572 54.5125202228 28.7565148109
Fe 35.9000462362 55.9885781444 30.1701219291
Fe 37.3414369658 54.5826454438 28.6897188321
Fe 38.7027447479 55.9250523672 30.0948128594
Fe 40.1483740073 54.5579780199 28.7399352414
Fe 41.65266192 55.9601012746 30.159948531
Fe 43.1066330508 54.5808299928 28.6812540943
Fe 44.459019858 55.9137956494 30.103858149
Fe 45.9396971839 54.5783516722 28.7364636532
Fe 47.4046486415 55.966957478 30.1571183422
Fe 48.7833913491 54.4744639844 28.6436225107
Fe 50.268684006 55.9155824473 30.1325780895
Fe 51.6531981055 54.5763631249 28.666284557
Fe 53.0784334865 56.0153084146 30.1281829525
Fe 54.5207108491 54.5348072123 28.6570252943
Fe 55.9319411827 55.962829761 30.1394159724
Fe 57.3588597088 57.3545357695 31.6014865078
Fe 1.4061816107 1.4288974085 32.9856480636
Fe 2.9116751837 57.3491749866 31.5129235131
Fe 4.3577120779 1.3850459996 32.9999342315
Fe 5.790708485 0.025468798 31.5868948623
Fe 7.1879378846 1.472561109 33.0060637363
Fe 8.6675951099 0.0521885765 31.5836766056
Fe 10.0083038698 1.430041364 32.9552573948
Fe 11.5248905965 0.0576835696 31.5421583713
Fe 12.8837207638 1.4446871796 33.0424142165
Fe 14.3251125216 57.3638183873 31.6219061745
Fe 15.7380766023 1.4114722165 32.9798033068
Fe 17.1840005178 57.3612082637 31.5893110833
Fe 18.6761279634 1.4826733346 33.019391297
Fe 20.0535483505 0.0113578109 31.5349831124
Fe 21.5681389709 1.3866404227 32.9742431915
Fe 22.9031020341 57.3986812138 31.6207798392
Fe 24.3797795792 1.4503431724 33.0600614376
Fe 25.8247837391 57.3895246666 31.5129722484
Fe 27.2108490383 1.4611665271 33.0197133329
Fe 28.7150086513 0.0073919718 31.5177938806
Fe 30.1781097496 1.3858308764 32.9910749918
Fe 31.5747960557 0.0291057291 31.5810784783
Fe 32.981034491 1.4762788026 32.9490906054
Fe 34.3999936679 0.0030434389 31.5314780885
Fe 35.8687614988 1.4235313299 33.0291278756
Fe 37.3573815859 57.3479127153 31.6217322779
Fe 38.7762879698 1.4265265752 32.9782109553
Fe 40.1564401022 0.0305379511 31.6121207589
Fe 41.589250074 1.3920879606 33.0514931389
Fe 43.0531507717 57.3757011697 31.5689468343
Fe 44.518113919 1.4229503518 32.9865278302
Fe 45.9623191407 57.3469941354 31.6088010331
Fe 47.4085122925 1.4681762274 33.0131205421
Fe 48.805513312 0.0067744919 31.5219435329
Fe 50.2226086622 1.4146636238 32.9901874349
Fe 51.7009195389 57.3517819818 31.5367188956
Fe 53.0843156886 1.423982385 32.9701166156
Fe 54.5815987107 0.0424423079 31.5717627758
Fe 55.9634105924 1.4054755191 33.0456709158
Fe 57.3921124394 2.8816403834 31.5944760472
Fe 1.4217442294 4.3462636275 33.0029522516
Fe 2.8527635137 2.9274390538 31.6067413619
Fe 4.2680333586 4.2844717462 33.0353579683
Fe 5.730011064 2.875774879 31.5257704219
Fe 7.2325588097 4.322314091 32.9619014573
Fe 8.5996195556 2.9107901307 31.5763220726
Fe 10.0052512592 4.266577834 33.0525970337
Fe 11.4828848698 2.8141888978 31.5298267053
Fe 12.8633489355 4.2806539218 32.9826148302
Fe 14.3123741438 2.826765293 31.5922955638
Fe 15.775349144 4.2604923025 32.9749305274
Fe 17.2213117885 2.9074103186 31.5848724688
Fe 18.6866233493 4.2785802664 32.9694678177
Fe 20.0335312457 2.866656611 31.5984478251
Fe 21.4695436799 4.3077845081 32.9928792707
Fe 22.9229102293 2.8381544888 31.5904678845
Fe 24.4288797087 4.3150178488 33.0576869814
Fe 25.7783051001 2.8751975084 31.6040577112
Fe 27.2356519226 4.3292691757 33.0082868451
Fe 28.7576250107 2.8955209978 31.5641630015
Fe 30.1915249985 4.2610593296 33.0218779669
Fe 31.6224373192 2.8356178938 31.5720447505
Fe 32.9704377205 4.2491571232 33.0483178726
Fe 34.4177412393 2.8609524354 31.5921235955
Fe 35.8508341467 4.3565135938 32.9797244299
Fe 37.3321088233 2.9198260734 31.526863697
Fe 38.7013097022 4.3449008462 33.035802601
Fe 40.2204652978 2.8758750819 31.5183824543
Fe 41.6290420025 4.2645451987 32.9712581737
Fe 43.0696896996 2.9242960093 31.5262404862
Fe 44.4902064869 4.3393441509 32.950599322
Fe 45.8759473962 2.8754161333 31.5468257057
Fe 47.3466587436 4.2810945299 33.0209100205
Fe 48.8070999877 2.8669916068 31.5942246232
Fe 50.1938383317 4.2504715789 33.0388879936
Fe 51.6476197997 2.854267506 31.5887314484
Fe 53.1209724366 4.2494642674 33.0206275932
Fe 54.5163405002 2.8422093751 31.5708730553
Fe 56.0162549412 4.3221049065 33.0284551914
Fe 0.0102377293 5.6848689248 31.5524862882
Fe 1.3924531155 7.221878242 33.0566763921
Fe 2.8863257298 5.7665257038 31.5599379759
Fe 4.3195941373 7.1214626624 33.0036271562
Fe 5.7764915886 5.694646093 31.5646688764
Fe 7.1646075201 7.1633120974 33.01010226
Fe 8.6217765722 5.7498284618 31.5484014804
Fe 10.0788818697 7.1913950431 33.046231544
Fe 11.4857792782 5.7133742388 31.566199338
Fe 12.9503025699 7.2324398198 32.9679053721
Fe 14.3753942825 5.6978406169 31.619213517
Fe 15.7997553506 7.1782770815 33.0020791332
Fe 17.2483247626 5.7621064661 31.6208524788
Fe 18.6799015339 7.1876168633 33.0211061246
Fe 20.1054685156 5.7219957828 31.5569754619
Fe 21.5306737584 7.1391184042 33.0498891812
Fe 22.9767591061 5.7901512085 31.5379876721
Fe 24.3789579094 7.1293188901 32.9895957883
Fe 25.850075148 5.7487452642 31.6218622718
Fe 27.2528614546 7.1884000429 33.0118481376
Fe 28.7102827591 5.7391542291 31.5745211899
Fe 30.1492761854 7.209000482 32.9979260494
Fe 31.569567158 5.7361557865 31.6198247843
Fe 33.0240659733 7.1932797041 33.0107895023
Fe 34.3934685938 5.7344853884 31.5495556977
Fe 35.8258474994 7.1820895299 33.0030560343
Fe 37.3416306783 5.7776484014 31.612817002
Fe 38.759875711 7.1343622023 33.0257443255
Fe 40.2117296022 5.7299800454 31.5604099449
Fe 41.6333365772 7.1380705943 33.0083681707
Fe 43.0643158628 5.7699732555 31.534219918
Fe 44.438522247 7.2256975739 33.04143539
Fe 45.8667918468 5.7504558014 31.5621579203
Fe 47.3587221711 7.1340084009 32.9644299462
Fe 48.8371619138 5.6961685749 31.5653495544
Fe 50.2357827085 7.1321703256 33.0278781008
Fe 51.6161849701 5.7197558337 31.6269391177
Fe 53.0861061707 7.1805002738 33.020944396
Fe 54.5510096368 5.7640206804 31.5807610688
Fe 56.0227872105 7.1241268346 33.0466424492
Fe 0.0364656982 8.5870128989 31.5412561381
Fe 1.4296838279 9.9956845358 33.0056850849
Fe 2.8498297684 8.6430875299 31.5601448035
Fe 4.3190507369 10.0303424376 32.9835982595
Fe 5.6969482949 8.5875365052 31.5664665231
Fe 7.1602137773 10.0372109999 32.9785477941
Fe 8.5968097155 8.5527287617 31.5751767146
Fe 10.0833572455 10.0910758041 32.9754605071
Fe 11.482107508 8.5674441299 31.581788117
Fe 12.8865997581 10.0793549478 32.9951024882
Fe 14.3270216693 8.5903151198 31.612503223
Fe 15.8152640805 10.0382562355 33.0534085314
Fe 17.1784615077 8.6078712938 31.5727624962
Fe 18.6897662411 10.0110424734 33.0432865203
Fe 20.054640772 8.6390349155 31.5485652843
Fe 21.5056299071 10.0769629173 32.9963543158
Fe 22.9444637513 8.6000497302 31.6271132241
Fe 24.3955131267 10.0256495079 32.9564985345
Fe 25.8807484669 8.6039299331 31.5756425194
Fe 27.2117038835 9.9910642893 33.0600881858
Fe 28.6829165332 8.5679786619 31.5869029988
Fe 30.1327756429 10.0447837541 33.0616459206
Fe 31.5258207231 8.5845321783 31.5187474953
Fe 32.9522409201 10.004903675 32.9729348348
Fe 34.410291222 8.5902250924 31.557907867
Fe 35.8340495903 10.0540602503 32.9779941494
Fe 37.3504996405 8.5741541396 31.5888233891
Fe 38.732288725 9.9987048328 33.0098057988
Fe 40.1999658162 8.6624290963 31.5593461197
Fe 41.629089879 10.0713618947 32.9752861702
Fe 42.9966123207 8.567271013 31.5429619056
Fe 44.5289828515 10.0374369302 32.9894023631
Fe 45.9716521643 8.6179246403 31.564916045
Fe 47.393430893 10.0135312194 33.0195871088
Fe 48.7707988465 8.6431458289 31.6048740359
Fe 50.2702782306 10.0111476597 32.9670236827
Fe 51.6610664653 8.5723609551 31.5359353003
Fe 53.1061311529 10.0026977957 33.0626625026
Fe 54.5298603313 8.5555354417 31.5492915071
Fe 55.9176326506 10.013908048 32.9549839116
Fe 57.3885412501 11.4792768132 31.5853326104
Fe 1.3962448313 12.858508191 32.9986412425
Fe 2.852413893 11.4330144619 31.5583561279
Fe 4.2956018521 12.9628109966 33.0027676791
Fe 5.6923768808 11.5007171318 31.5561916532
Fe 7.1297889525 12.8664794616 32.9574363308
Fe 8.649292496 11.4246052421 31.6250929914
Fe 10.1026672867 12.905375121 33.0211664607
Fe 11.4796884749 11.4615549539 31.5780756279
Fe 12.9094849737 12.943063798 33.0542792256
Fe 14.404364619 11.5135488549 31.5140548841
Fe 15.7581630834 12.9556217581 32.9572216162
Fe 17.2614332679 11.5034080985 31.5660091413
Fe 18.699755652 12.8987632778 33.016255571
Fe 20.0947670603 11.4682016752 31.5946811468
Fe 21.4891980771 12.9695399693 33.012016636
Fe 22.9294397369 11.5077434739 31.5349539736
Fe 24.4177972898 12.9520025119 33.0061265671
Fe 25.8260316306 11.4655859189 31.5409501304
Fe 27.2318608986 12.8719225942 32.960926922
Fe 28.7381420325 11.4966655257 31.549485581
Fe 30.1214060647 12.9001358289 33.0068717102
Fe 31.5322914803 11.4804208456 31.6093889979
Fe 32.9689646652 12.9388968179 32.9623338845
Fe 34.4432918225 11.5113069524 31.5249195564
Fe 35.8375803436 12.8896800648 32.9600398631
Fe 37.2600184648 11.4547234792 31.5630506675
Fe 38.7592060889 12.8815028976 33.0113288498
Fe 40.2362765486 11.4877209412 31.5909737279
Fe 41.6583755502 12.8942788711 32.9786992611
Fe 43.1055783578 11.4777527536 31.6075640376
Fe 44.4492126336 12.9440883797 33.0237887528
Fe 45.9514842022 11.5348408987 31.5782199337
Fe 47.3062498775 12.9618241683 33.0566915061
Fe 48.757384002 11.5374434995 31.5982544443
Fe 50.1917745141 12.8696918206 33.0074578984
Fe 51.6124706291 11.4243226705 31.5821862426
Fe 53.1427621797 12.9153489801 33.0240865773
Fe 54.5504662548 11.4597109634 31.6167075177
Fe 55.9571060545 12.9277340817 32.9986063532
Fe 57.3599937432 14.3830086976 31.5164302176
Fe 1.4347912255 15.7885262148 32.9756689182
Fe 2.8764129216 14.3100213688 31.5227731324
Fe 4.2933198415 15.8282390511 32.9711942966
Fe 5.6867372998 14.3376446201 31.5690035489
Fe 7.1274534618 15.7654132416 33.0052906251
Fe 8.6428752268 14.375056406 31.5997832293
Fe 10.0161348896 15.7376513782 33.051611648
Fe 11.4244936877 14.3449228396 31.5140150507
Fe 12.8884895971 15.8321657166 33.0331909043
Fe 14.3345725163 14.3415730257 31.5454514779
Fe 15.7542237593 15.7696075002 33.0251921607
Fe 17.2611372267 14.391053422 31.5907423371
Fe 18.6510680245 15.7433442511 33.0206650211
Fe 20.0426506234 14.4077317368 31.6163295067
Fe 21.490855353 15.7724991424 33.002544036
Fe 22.9510546365 14.3245833129 31.5871227673
Fe 24.3648266566 15.8193034755 33.0034305364
Fe 25.8149850284 14.3546716042 31.597858171
Fe 27.2452368339 15.7479795084 33.0316972754
Fe 28.6861718597 14.3752693703 31.5544283822
Fe 30.1768009893 15.8196415718 33.0094974719
Fe 31.5879631083 14.3579730834 31.5493042435
Fe 33.0014111593 15.7820389011 32.9754191994
Fe 34.4241383247 14.3581428682 31.5292231379
Fe 35.90726528 15.8157581211 32.9816238772
Fe 37.2590804302 14.3251263565 31.6155608635
Fe 38.7396943981 15.7550683793 32.9907824712
Fe 40.1764459879 14.3906404071 31.5489016298
Fe 41.6562507292 15.8106289411 32.9838977384
Fe 43.1073611373 14.3576753611 31.5920545413
Fe 44.466949854 15.7820994923 32.9510865744
Fe 45.8992338159 14.3549391457 31.6179155215
Fe 47.3588395003 15.7675160828 33.0003330984
Fe 48.7561319656 14.4028175317 31.5855023788
Fe 50.2133219351 15.7356557137 32.9790104556
Fe 51.6654469683 14.3127326722 31.5253644735
Fe 53.0996227006 15.8161017097 33.0548471199
Fe 54.5571589095 14.3552709096 31.5786998778
Fe 55.9857394677 15.7759440959 33.0067073264
Fe 57.393598245 17.163192884 31.6014129361
Fe 1.4206101613 18.6192577033 32.9589218206
Fe 2.824177309 17.2762659337 31.5644105456
Fe 4.3270004755 18.7081606613 33.0089672872
Fe 5.7300670131 17.2703813218 31.5747076871
Fe 7.1536259035 18.6023238736 32.9875679103
Fe 8.5646660811 17.2245512573 31.5848090193
Fe 10.0109680289 18.609394267 32.987591088
Fe 11.5096245062 17.2054002919 31.5596357899
Fe 12.8683341055 18.6054224392 33.0188585272
Fe 14.3164864731 17.2048464413 31.5670892543
Fe 15.7583940958 18.6890941209 32.9718931631
Fe 17.2154409816 17.2200272614 31.5454229145
Fe 18.6288474892 18.6651101822 33.0609165616
Fe 20.0530474004 17.1936671331 31.6093617288
Fe 21.5790364454 18.6354154439 33.0049376999
Fe 23.0002518376 17.2376104437 31.553958364
Fe 24.3620008509 18.6198290352 33.0124823349
Fe 25.8788157043 17.1855167627 31.5557189535
Fe 27.300891319 18.6207459643 33.0471296864
Fe 28.7109717618 17.265108519 31.5215206189
Fe 30.1869359096 18.6379070133 32.9904174287
Fe 31.5988759843 17.1791380747 31.5485377917
Fe 33.0048751963 18.6962957143 32.9667928039
Fe 34.4678756299 17.2277890498 31.5848036198
Fe 35.8785918721 18.6887107543 32.9512174016
Fe 37.3009206354 17.2594236919 31.61102342
Fe 38.7783063978 18.7034845257 32.9986279002
Fe 40.2284285145 17.1686844395 31.514449365
Fe 41.6387965128 18.7106350581 32.9949363104
Fe 43.0089694146 17.1869065909 31.5563516291
Fe 44.4432307289 18.6856427528 32.9853078086
Fe 45.8744772032 17.1906512847 31.5263583958
Fe 47.3566881311 18.6113691244 32.9738800205
Fe 48.8454708384 17.1808889091 31.5332517406
Fe 50.2520097322 18.6910564257 33.0116886549
Fe 51.6915833397 17.1908441072 31.6240772128
Fe 53.1102068401 18.6641944785 33.0050627594
Fe 54.5339905289 17.2037422825 31.6245306516
Fe 55.9818363674 18.6868405799 33.0059306757
Fe 0.0402044959 20.0901337224 31.5427215705
Fe 1.4225913134 21.5209044408 33.0166595039
Fe 2.8457283166 20.1284465883 31.5401448887
Fe 4.3245781565 21.4718932623 32.9654334727
Fe 5.7495399678 20.0513595559 31.5856150668
Fe 7.1678328659 21.5172408949 33.0101441313
Fe 8.619555748 20.0914628716 31.5765719014
Fe 9.9969115755 21.5337210802 33.0558324741
Fe 11.5283436092 20.0827831343 31.5275370319
Fe 12.8697787878 21.4957447202 33.0453337681
Fe 14.3065217385 20.1231141285 31.5231830099
Fe 15.7785813153 21.5451734555 33.0353471476
Fe 17.2343996818 20.0892665121 31.6105969514
Fe 18.6208162854 21.5131789358 33.001909796
Fe 20.0963500362 20.0664514581 31.5503820592
Fe 21.5304777964 21.5604269587 33.0158581998
Fe 22.9400628088 20.0500734848 31.5206310728
Fe 24.4290447554 21.5176133698 32.9853046935
Fe 25.8195454299 20.0423023697 31.5375299452
Fe 27.2863828373 21.5812100951 32.9755078519
Fe 28.6805159774 20.1044990925 31.529166462
Fe 30.0920573196 21.5296536889 33.0335366298
Fe 31.5874172898 20.0766533489 31.55033891
Fe 33.022639797 21.5381344524 33.0154574226
Fe 34.401773336 20.0552411307 31.6083168479
Fe 35.8951929089 21.5611362589 33.0094210375
Fe 37.357339699 20.0780992868 31.5226766942
Fe 38.7617581073 21.4718063974 33.0577520542
Fe 40.2066516989 20.0529748947 31.6095933678
Fe 41.5711535445 21.4894261167 33.0213128223
Fe 43.0921115863 20.104713966 31.5279690311
Fe 44.5266026698 21.5224547409 33.0104902269
Fe 45.8725450703 20.0917164094 31.6007497021
Fe 47.3344659171 21.4786597742 33.0187896113
Fe 48.7981626436 20.0572612925 31.5173160473
Fe 50.1830487527 21.524969471 32.976397573
Fe 51.6303780017 20.1119274663 31.5530650488
Fe 53.1064661409 21.4702744704 32.9694385041
Fe 54.51313887 20.1371133788 31.5870782764
Fe 55.9269881677 21.4827402161 33.011664997
Fe 57.3808061358 22.9174134946 31.5244386947
Fe 1.3878109631 24.3884604489 32.9902491521
Fe 2.8206020141 22.9489261357 31.5492896371
Fe 4.2969541949 24.4158753641 33.0376373334
Fe 5.777578993 23.0157347131 31.5728523437
Fe 7.1203376099 24.4048710662 32.9602406351
Fe 8.6433789571 22.9380318202 31.5433628677
Fe 10.0206976318 24.4221761392 32.9674488098
Fe 11.4871956453 22.9298938464 31.5961293622
Fe 12.9470919632 24.3995225186 33.0251893225
Fe 14.3241685757 22.9433380428 31.5180788131
Fe 15.8053162627 24.3902876114 32.9939150015
Fe 17.1793178649 22.9024626566 31.5216806549
Fe 18.6246069774 24.4204916949 33.055586584
Fe 20.1340019814 22.9714593862 31.5321481817
Fe 21.5520530243 24.4260767767 33.0041841665
Fe 23.016142057 22.9256955106 31.5981684372
Fe 24.4452598754 24.3914141389 32.9962593189
Fe 25.869062586 22.9669979787 31.5184669419
Fe 27.2418560978 24.3732608779 33.006190983
Fe 28.6514705987 22.9122968566 31.5634016535
Fe 30.0990842375 24.3881205503 33.0233627229
Fe 31.5482426533 22.9064427488 31.5703780888
Fe 32.9812181068 24.3676083909 33.0156313635
Fe 34.4717731039 22.9810756989 31.5382647603
Fe 35.9250494096 24.3480281519 33.0612115318
Fe 37.3616423384 22.9173980797 31.5741220268
Fe 38.8015771904 24.4323633521 32.9924877139
Fe 40.2217404471 22.9437875019 31.6198783642
Fe 41.6351372347 24.3958132469 32.9482195636
Fe 43.101038997 23.0045210627 31.5578475903
Fe 44.4510841428 24.3970599285 32.9871598529
Fe 45.8643702323 22.9781683559 31.5211256566
Fe 47.3366738913 24.3926190728 33.0122006523
Fe 48.7431775298 22.9866825723 31.5721376924
Fe 50.2201325373 24.363219142 32.9987524725
Fe 51.6083862059 22.9565271343 31.5813759579
Fe 53.0571276301 24.4083206393 32.9584169953
Fe 54.5076688007 22.9275863662 31.5333646842
Fe 56.0145499712 24.4268610587 33.051315295
Fe 57.3927425339 25.8660283585 31.6241291695
Fe 1.442418773 27.3142649752 32.9646260816
Fe 2.865152848 25.8674912209 31.6119846508
Fe 4.289141567 27.2531458963 32.9709875432
Fe 5.7218359552 25.7775528824 31.6075161499
Fe 7.2022208067 27.2932878426 32.9960786616
Fe 8.5578534939 25.8622922637 31.533516775
Fe 10.0678527703 27.2294201717 33.0382408958
Fe 11.4339856284 25.8241080567 31.5982320371
Fe 12.9375488165 27.2899002193 33.0399211437
Fe 14.3746977757 25.8038902672 31.5420427519
Fe 15.7762181658 27.2308865379 33.0254085605
Fe 17.1724019846 25.8757857182 31.5542843122
Fe 18.628419689 27.229827783 32.9902257052
Fe 20.0707644937 25.8772509669 31.5297386593
Fe 21.5276531975 27.2221194406 32.9698451654
Fe 22.9180863523 25.79250584 31.5675122193
Fe 24.4490798554 27.2459052743 33.0595620859
Fe 25.7982706338 25.8019663502 31.6139369141
Fe 27.3032805459 27.3033202843 33.0231164227
Fe 28.7307843521 25.837701263 31.6003652116
Fe 30.1378340002 27.2973635366 32.9794166801
Fe 31.599867671 25.8369168921 31.5535795113
Fe 33.0064777123 27.2831611956 32.9964947124
Fe 34.4559746928 25.774216694 31.528222322
Fe 35.8222120561 27.3007407675 33.0508081529
Fe 37.3617217616 25.816796014 31.6158906941
Fe 38.7157945686 27.2825551263 33.009347793
Fe 40.1983050686 25.7817388338 31.6204914651
Fe 41.6318277283 27.3162958846 32.9713226279
Fe 43.1034779372 25.8611117647 31.5576268958
Fe 44.4385875651 27.2686805462 33.0571303053
Fe 45.9614408165 25.796496466 31.5482632462
Fe 47.4009842416 27.2419850825 32.9856515184
Fe 48.8166884111 25.8044333601 31.5971880714
Fe 50.2704875071 27.2158975625 32.9938262324
Fe 51.6898097938 25.8353994265 31.5618069392
Fe 53.054035331 27.2676399448 33.0498226473
Fe 54.5493552098 25.8311093021 31.5338530989
Fe 55.9430345845 27.2805559267 33.0487403006
Fe 57.3525692858 28.7013935074 31.6200105617
Fe 1.4007527427 30.1810762381 32.9996432924
Fe 2.9128081443 28.6938519284 31.5703201901
Fe 4.3008302536 30.1594827424 32.994103284
Fe 5.7130065743 28.6456392232 31.5856962005
Fe 7.2269281188 30.0850477779 33.049298317
Fe 8.6042740098 28.7408426469 31.5162665737
Fe 10.0055807152 30.1862968829 33.0386584763
Fe 11.4769681825 28.6463709258 31.5368999659
Fe 12.9172120468 30.1469018914 33.0315200232
Fe 14.3136761475 28.7443625745 31.5349415574
Fe 15.7732894337 30.0945269161 33.0611949162
Fe 17.1662292219 28.6792498181 31.5543002128
Fe 18.5995584642 30.1137033333 33.0318923683
Fe 20.1030200875 28.6729549184 31.6012430441
Fe 21.5626067923 30.122824646 33.019963105
Fe 22.9257305204 28.6992112735 31.5717474258
Fe 24.3655665863 30.0919289902 33.0170436045
Fe 25.8708951905 28.6454451138 31.6105480744
Fe 27.3175074664 30.1038574713 33.0307325108
Fe 28.6458511974 28.6716969643 31.612980243
Fe 30.1222266587 30.1186846465 32.9736401578
Fe 31.5773154685 28.6520588016 31.6025090603
Fe 33.0583437338 30.095126724 33.0198146447
Fe 34.4579393984 28.7414890482 31.6216710368
Fe 35.8921588702 30.1063954324 32.9817592593
Fe 37.3151658285 28.6462697393 31.5465678234
Fe 38.7374006202 30.1649844249 33.0003128613
Fe 40.1952798539 28.7020064586 31.5199578973
Fe 41.6713284503 30.1670563268 32.9997715502
Fe 43.0786153392 28.7361690751 31.5173922357
Fe 44.4943286199 30.1431837572 33.0556131422
Fe 45.873154023 28.6891716004 31.5879391324
Fe 47.39140299 30.17953766 32.9600099351
Fe 48.7596635193 28.700676334 31.5825590943
Fe 50.2248039112 30.1209475341 32.952882423
Fe 51.6159801834 28.7471360072 31.5847718354
Fe 53.1072436042 30.1210457042 33.0460813818
Fe 54.5534348847 28.699919722 31.5188407537
Fe 56.0102496153 30.0959483599 32.9479374049
Fe 57.3951140654 31.5988451219 31.5295312968
Fe 1.4189198991 33.0297149788 32.9825509479
Fe 2.8919543082 31.549513987 31.5856387095
Fe 4.2823946534 33.0324856156 32.9631064307
Fe 5.7828594015 31.5803540322 31.6264338959
Fe 7.2198714434 33.0535877307 33.0329856768
Fe 8.6423089769 31.6142900885 31.620498363
Fe 9.9992951345 33.0238866711 33.0425837693
Fe 11.5061233847 31.6173583814 31.5825718001
Fe 12.9061075917 33.022616259 32.953925272
Fe 14.361946682 31.6005441301 31.5199994612
Fe 15.7895589515 32.9784427439 32.9909590127
Fe 17.1923671204 31.5237215156 31.5602648897
Fe 18.6736579435 32.988530027 32.960933419
Fe 20.0515791619 31.5916407202 31.5359910392
Fe 21.5797499535 33.0312057774 33.0440590075
Fe 22.9671670166 31.5684413789 31.5180329811
Fe 24.4383950859 33.0254077744 32.993800776
Fe 25.8187645353 31.5484981346 31.5848020697
Fe 27.3107509574 33.0066144206 32.9908372708
Fe 28.6520388067 31.524713348 31.6268489554
Fe 30.1197064985 33.0493054921 32.95667068
Fe 31.5977599841 31.5738332472 31.5802009368
Fe 33.0089024973 32.9798430897 32.9563243466
Fe 34.4401617371 31.5609739841 31.5910242135
Fe 35.9039380571 33.0594141779 33.0107926002
Fe 37.3125849788 31.5808817167 31.5667882713
Fe 38.7604433571 32.973186381 33.0213354865
Fe 40.2332264021 31.5447767826 31.5283597444
Fe 41.6019010535 32.9577174243 32.9728853098
Fe 43.0814634889 31.584560599 31.5983898779
Fe 44.5133379295 33.0451180489 32.9677581988
Fe 45.8695532039 31.5408367884 31.5774691147
Fe 47.3373391238 32.9587586355 33.0356279053
Fe 48.7757669083 31.5970019152 31.5739812089
Fe 50.2628644776 33.0009628696 33.0126888696
Fe 51.6774800401 31.6254550464 31.5519740824
Fe 53.0601889712 33.0013456293 33.0317636237
Fe 54.5054630745 31.6110547223 31.5316474801
Fe 56.0208219777 33.0138724402 33.0489785007
Fe 0.0453033301 34.481617461 31.5780325604
Fe 1.4182409874 35.8593853491 32.9799407942
Fe 2.8142683998 34.466566496 31.583869398
Fe 4.3106788185 35.8187898023 33.0550614919
Fe 5.7081282709 34.3919127481 31.5289989041
Fe 7.2246273191 35.9009580431 32.9897002187
Fe 8.6531549655 34.4621424764 31.5553650476
Fe 10.0964513049 35.9225487963 33.0283785724
Fe 11.4299225934 34.4532509136 31.5737245825
Fe 12.8816997239 35.8495652017 33.0366878385
Fe 14.3872067406 34.3829689106 31.5547874078
Fe 15.8220512002 35.8726495451 33.0411030949
Fe 17.1724065201 34.4057840081 31.5893498258
Fe 18.6226095559 35.9319474236 33.0273931772
Fe 20.0884912462 34.4903699159 31.5921431352
Fe 21.4925558863 35.8641379274 33.0579754048
Fe 22.9854823524 34.4832203249 31.5739501257
Fe 24.3643734768 35.8982011357 33.0266666661
Fe 25.8777245823 34.4288675923 31.5540173392
Fe 27.2786968812 35.8991909571 32.9835107253
Fe 28.6813066349 34.4357619067 31.5831044599
Fe 30.111149542 35.8954482311 32.9661231855
Fe 31.5998727946 34.4044390097 31.5157727756
Fe 33.0205161661 35.9284319123 33.0407949886
Fe 34.3934325948 34.414024922 31.6110667278
Fe 35.8839963774 35.9243012961 32.9870859447
Fe 37.2799774943 34.4031967422 31.5620388963
Fe 38.7288478871 35.921762967 33.0371536931
Fe 40.1874825219 34.442215497 31.6273796652
Fe 41.6045252576 35.8837117786 32.9658580766
Fe 43.0288505437 34.4447328068 31.5496419143
Fe 44.4335361692 35.897698187 33.0443579056
Fe 45.9683901855 34.4516082669 31.5479748322
Fe 47.3778911672 35.9158140836 32.955660808
Fe 48.8461808892 34.3944525897 31.5451786979
Fe 50.1768024328 35.9185917007 32.9600318201
Fe 51.66351886 34.4037820125 31.5143461242
Fe 53.0735755951 35.8537651315 32.9841308924
Fe 54.4888014545 34.48790388 31.5226529844
Fe 55.9843838996 35.8378570982 32.9691752338
Fe 57.3527849473 37.3030306528 31.5924651906
Fe 1.3828277409 38.7862887802 33.0560881395
Fe 2.8805504451 37.3673289844 31.5910600321
Fe 4.3469326051 38.6979773984 32.9881485293
Fe 5.6910508166 37.3566374217 31.5580402648
Fe 7.1874821959 38.7153990673 33.0256573874
Fe 8.5975347983 37.3302514229 31.5279208261
Fe 10.024301694 38.7294502015 32.9836263926
Fe 11.4536475395 37.2885143741 31.5589216331
Fe 12.9241619923 38.7518889023 33.0477000123
Fe 14.3523073638 37.295190432 31.5189913541
Fe 15.7334042394 38.7193113254 32.9935696522
Fe 17.2389195525 37.3323962787 31.5222960981
Fe 18.6520353594 38.7521137478 33.0240245665
Fe 20.0464935777 37.2767979398 31.5788546683
Fe 21.5452270385 38.7296928065 33.0021531938
Fe 22.9768135354 37.3032839886 31.6001887534
Fe 24.3646693121 38.7997138515 33.0525108714
Fe 25.8420640661 37.3012970443 31.604531968
Fe 27.2387312609 38.7549163979 32.9788052482
Fe 28.6808277843 37.2658303872 31.6109817284
Fe 30.1203595147 38.7234195031 33.0476098194
Fe 31.5446472008 37.3286799781 31.5470228695
Fe 33.0267643961 38.7031092238 33.0430881729
Fe 34.4112167145 37.3017080907 31.5561059367
Fe 35.848201991 38.7169962503 33.0282775394
Fe 37.3279193024 37.2832552629 31.5382683783
Fe 38.7065207551 38.7886034674 33.0588781055
Fe 40.1232622363 37.3070504035 31.6140596181
Fe 41.6394048273 38.7005269829 33.0254606591
Fe 43.0653847796 37.3045981788 31.6216616454
Fe 44.5188108569 38.7460387978 33.0260189081
Fe 45.9776793786 37.3194466285 31.6200108682
Fe 47.3603487305 38.7030883061 33.0445647629
Fe 48.8436763107 37.3022767503 31.6235272017
Fe 50.2548088886 38.7612516056 32.9694637831
Fe 51.6470670061 37.2929881244 31.5329733855
Fe 53.0746484084 38.7211541218 32.9486121999
Fe 54.4736880314 37.2598178626 31.6178794263
Fe 56.0031077032 38.7824337927 32.961013107
Fe 0.0041707985 40.1784747267 31.5721663138
Fe 1.4188648541 41.6145748014 33.0558020233
Fe 2.8138588852 40.1938463252 31.6022542309
Fe 4.2699477728 41.6332986138 32.9674754281
Fe 5.7261641878 40.124085951 31.5240592882
Fe 7.2085934015 41.6085438888 32.9631051036
Fe 8.6323315137 40.1395742062 31.6074953931
Fe 10.0564089588 41.6418672248 32.9535086882
Fe 11.4341002581 40.135067257 31.5756218332
Fe 12.9392931304 41.661928646 33.0333259785
Fe 14.3044335901 40.1917321633 31.5199766699
Fe 15.7388237514 41.6639539943 32.9992843088
Fe 17.2428330579 40.1756559816 31.5146258765
Fe 18.6965150672 41.6500519679 32.9950275882
Fe 20.0343053953 40.1808126984 31.5718707021
Fe 21.5052851154 41.6438062641 32.9629205454
Fe 22.9537856657 40.1270757916 31.6272142868
Fe 24.3774100483 41.5775234914 32.9889245494
Fe 25.8249855182 40.2111521202 31.5518042296
Fe 27.2292583815 41.5937401621 32.9501868435
Fe 28.7220308346 40.2044861004 31.6151723222
Fe 30.1774986708 41.6633288463 32.9492647329
Fe 31.6238836487 40.1797504427 31.5700407662
Fe 33.050130291 41.6529016466 33.0593160681
Fe 34.3852876561 40.2313812549 31.51916252
Fe 35.9037321853 41.5844956085 33.0533791622
Fe 37.3261952744 40.1710183616 31.5189142258
Fe 38.7817795237 41.6227004535 33.05461248
Fe 40.2265235511 40.1899062838 31.6032780265
Fe 41.6005799952 41.5869711723 32.9911902977
Fe 43.0029231056 40.1519319048 31.5797433206
Fe 44.4359479093 41.6295511546 32.9897091581
Fe 45.9646676438 40.1524206116 31.5801113861
Fe 47.3915046245 41.6049435943 33.0051884454
Fe 48.8355569465 40.1549904194 31.5409663964
Fe 50.2610367175 41.5779460248 32.9655179318
Fe 51.6837554902 40.169965485 31.6191583289
Fe 53.1056422044 41.5645243263 32.9593673831
Fe 54.5695309156 40.1906512692 31.5173329007
Fe 55.9980821979 41.6173744031 32.947353467
Fe 0.0432229304 43.0112427831 31.6010371454
Fe 1.474976089 44.4308685377 33.0420577505
Fe 2.8156597762 43.0708814968 31.620070965
Fe 4.2859181069 44.5281859108 33.0230433506
Fe 5.7717204792 43.0563842965 31.5690297761
Fe 7.2276368897 44.5296477538 32.9608801786
Fe 8.6620164499 43.0278198705 31.5931156645
Fe 10.0869831057 44.4666933325 32.9503012184
Fe 11.4831002529 43.0803545894 31.5565950503
Fe 12.914237686 44.5032223046 33.0480510894
Fe 14.3130449107 42.9994250148 31.6079612305
Fe 15.7290562946 44.432684502 33.0536167877
Fe 17.1888915643 42.9925593958 31.5426444128
Fe 18.6582275572 44.5107663865 32.9680259353
Fe 20.0769842257 43.0567050174 31.585828934
Fe 21.4861015507 44.4461816629 33.004304463
Fe 22.924992678 43.019478032 31.5956115493
Fe 24.3715046037 44.4560051116 32.9995555439
Fe 25.79793572 43.036157676 31.5868313759
Fe 27.2848820279 44.5255950709 32.9534698734
Fe 28.7411485919 43.0693153869 31.5676074865
Fe 30.1431400609 44.4819371406 32.9693356059
Fe 31.5173143121 43.0198391169 31.6146036205
Fe 33.0504733017 44.4325172257 33.0455934756
Fe 34.4084613582 43.0240817828 31.5589798841
Fe 35.8394857766 44.4908896198 32.9709149287
Fe 37.3139615612 43.040647583 31.6075536646
Fe 38.7864975258 44.5228246621 32.9918777247
Fe 40.214819373 43.094056946 31.619476427
Fe 41.6000576303 44.4838254402 33.0373236479
Fe 43.0825269359 43.0309893331 31.5933486462
Fe 44.4851014915 44.5037479415 33.0408884342
Fe 45.9503003191 43.0637635099 31.5995466164
Fe 47.3564238533 44.5163125846 33.0271049177
Fe 48.8412349711 43.0135348366 31.5506260495
Fe 50.2798191025 44.4747174967 32.9509126558
Fe 51.6393461898 43.0538214561 31.608142139
Fe 53.1417439353 44.4709759586 32.9929825072
Fe 54.5877375437 43.0941075816 31.5290162746
Fe 55.9496061925 44.5369941167 33.0074945241
Fe 57.3917455767 45.8822627266 31.5797015261
Fe 1.4427428755 47.327801756 33.0156124622
Fe 2.8526108949 45.8690764666 31.5155708447
Fe 4.2886326678 47.3543831647 33.0420821893
Fe 5.7160415916 45.8893566298 31.5477634653
Fe 7.2193403095 47.3275175014 33.0001146793
Fe 8.5606112508 45.959125622 31.51487261
Fe 10.0940676063 47.3514455488 33.0171164388
Fe 11.5059819991 45.9500522734 31.5823622917
Fe 12.8648687277 47.3722401824 32.9871119619
Fe 14.356851453 45.9208080499 31.5407851227
Fe 15.8058253433 47.3516541637 33.0249308145
Fe 17.2190141322 45.915675004 31.5549044935
Fe 18.7009366111 47.390731045 32.9910183383
Fe 20.1244953861 45.8885645766 31.5464937597
Fe 21.5377809237 47.3002007463 33.0218253739
Fe 22.9321696944 45.8661708215 31.5206437857
Fe 24.3466835311 47.3441610979 33.0063116849
Fe 25.8862298326 45.8772540406 31.5821356724
Fe 27.26826101 47.3496931189 33.0045554025
Fe 28.736282203 45.9663526997 31.556355204
Fe 30.1260153096 47.3392552176 33.0487243617
Fe 31.5714302882 45.9038021997 31.6053057865
Fe 33.0111532354 47.3163351192 32.9969019125
Fe 34.4549300707 45.9178759108 31.5267607212
Fe 35.8612995687 47.3512626776 32.9505687096
Fe 37.3617349603 45.9319449118 31.5922176992
Fe 38.7535675436 47.3231907816 32.9966613224
Fe 40.2159656637 45.9273764909 31.5217014518
Fe 41.6005336083 47.3324881413 32.9807879968
Fe 43.0165191815 45.8816434639 31.6169090193
Fe 44.5259433933 47.4064876767 33.0257993279
Fe 45.8948885463 45.8899927083 31.564840348
Fe 47.3384482086 47.3378867991 32.9567342636
Fe 48.7500332588 45.9765667621 31.5275921711
Fe 50.278537085 47.404402135 33.0267614067
Fe 51.6062253071 45.9104344837 31.6170066544
Fe 53.0493479682 47.3088051757 32.9821717396
Fe 54.5333104923 45.9555155751 31.5758192812
Fe 55.9416815584 47.3930695015 32.9551774369
Fe 0.0304742887 48.8446690686 31.6246863602
Fe 1.4302725925 50.2438885641 32.9498710572
Fe 2.9033629607 48.7395792971 31.5405488039
Fe 4.3598353314 50.2006333318 33.0064594931
Fe 5.7141238121 48.8045615447 31.5886544664
Fe 7.2008720372 50.2709800165 32.9668511166
Fe 8.5826110371 48.7359868568 31.5135184657
Fe 10.0395285873 50.2227652347 33.0613364012
Fe 11.5233090152 48.7479913365 31.6053390775
Fe 12.8909262153 50.2060351032 33.0332109991
Fe 14.3173441125 48.7822111793 31.5612976575
Fe 15.7983181255 50.2809884353 33.0529144986
Fe 17.235878408 48.744998264 31.6117666399
Fe 18.6296668612 50.2018466358 33.0239572275
Fe 20.0677778418 48.8080258201 31.6190425846
Fe 21.4853164745 50.2200898408 32.9518329355
Fe 22.9680151318 48.8139955336 31.5447898883
Fe 24.3458064242 50.2226605382 33.0544150748
Fe 25.7940781929 48.7901211809 31.6121736059
Fe 27.2984421155 50.1764606456 32.9972089069
Fe 28.6880951988 48.7334549939 31.5778059974
Fe 30.1363242412 50.2016913952 33.0552872772
Fe 31.5594416401 48.7706113408 31.5191293329
Fe 32.9793727936 50.2620543834 33.028729098
Fe 34.4634525636 48.8087463544 31.5999471861
Fe 35.9323230143 50.2726587908 32.9787011998
Fe 37.3367752013 48.7552208911 31.5472056603
Fe 38.7005014933 50.2089588134 32.9648075639
Fe 40.2247149865 48.7905048029 31.5409246214
Fe 41.5761240661 50.2674942606 33.0395223344
Fe 43.0990228056 48.7975840702 31.5647678386
Fe 44.5334854038 50.224773237 32.9827632671
Fe 45.8872253054 48.8433350491 31.6125433282
Fe 47.3740362821 50.1724334219 32.9590745114
Fe 48.8319409218 48.8202222042 31.6116370291
Fe 50.2047572646 50.1905904161 33.0212932125
Fe 51.6064988818 48.7753807462 31.5768960128
Fe 53.0941853386 50.2743182273 33.0108068611
Fe 54.5030009944 48.8064989002 31.5437934672
Fe 55.9192779025 50.1792358888 33.0219828082
Fe 0.0081595536 51.6434467559 31.6070895228
Fe 1.4004800454 53.1217258561 32.9789095008
Fe 2.8480552623 51.643362353 31.5384545791
Fe 4.2729382648 53.1041634894 33.0265013151
Fe 5.7306315918 51.6654940026 31.6072604801
Fe 7.1641993972 53.1352532645 32.9697250079
Fe 8.5842779922 51.6890052145 31.5578876631
Fe 10.0260676038 53.0996518103 33.0078636418
Fe 11.5326637594 51.6747148496 31.6247546743
Fe 12.8705260725 53.0878014572 33.0080807396
Fe 14.3926095784 51.713748866 31.5824623875
Fe 15.7739981098 53.0473465812 32.9783129598
Fe 17.237252213 51.6678643633 31.5673150962
Fe 18.5992778835 53.0501731166 32.9654395188
Fe 20.0514739162 51.602912322 31.6014303823
Fe 21.5659243713 53.0516388175 32.9719712924
Fe 22.9476369751 51.6324316355 31.5464134609
Fe 24.4209937338 53.1225370507 33.0524697344
Fe 25.8604863192 51.6438008201 31.5723166802
Fe 27.3199121265 53.1414635127 33.0371994221
Fe 28.7492179132 51.6639114031 31.5341800345
Fe 30.1285585222 53.0655623748 32.9837482078
Fe 31.5917452018 51.6249243987 31.5998543134
Fe 33.0015029201 53.0885456087 33.0050737788
Fe 34.3949054252 51.6740798864 31.5796099089
Fe 35.9313593394 53.1167751642 32.9782171657
Fe 37.3074614055 51.7152314118 31.5485708
Fe 38.7246533208 53.0741527156 33.0263806974
Fe 40.2059014681 51.6928676517 31.5658327813
Fe 41.6132617043 53.1350589498 32.9757969433
Fe 43.0434511887 51.6721732532 31.5668154418
Fe 44.5264271124 53.0550796916 32.9998278977
Fe 45.8881544508 51.6500224047 31.591021414
Fe 47.3834978402 53.1370275407 33.023501742
Fe 48.8272772673 51.6220451045 31.5431522979
Fe 50.1921576185 53.0957100803 32.9895398536
Fe 51.6145758846 51.716555756 31.5732033231
Fe 53.0832079115 53.140878555 32.9920382191
Fe 54.486657421 51.6266888597 31.5310649063
Fe 55.969396861 53.0967817227 32.9826396165
Fe 0.028067144 54.5362534122 31.5463149025
Fe 1.4141468979 55.9358748417 33.0327094332
Fe 2.9124619276 54.4988533741 31.5258087411
Fe 4.2602756199 55.9298703553 33.0183960585
Fe 5.7361453888 54.5442153753 31.5532337276
Fe 7.1619682338 56.0134500337 32.9838139614
Fe 8.5573439773 54.5867988048 31.572737198
Fe 10.0428732555 55.9202573292 33.0259741992
Fe 11.4496923543 54.480275544 31.5941988068
Fe 12.9327614046 55.9174739621 32.9499938327
Fe 14.3349799049 54.5611095628 31.574104964
Fe 15.7991482044 55.9796139677 32.9667842028
Fe 17.1629631687 54.53410107 31.5852079006
Fe 18.5989830158 55.9192992183 32.9883534232
Fe 20.0721415145 54.5397357342 31.5902527765
Fe 21.5775247742 55.9302099569 32.9681637758
Fe 22.913650436 54.5670721686 31.5141635463
Fe 24.4101635953 55.9414807569 32.9904312471
Fe 25.791008251 54.5866626302 31.5845068054
Fe 27.3114698988 55.9633994381 33.0149453414
Fe 28.6481058442 54.4738994101 31.521818935
Fe 30.0969604028 55.9965702377 32.9979146192
Fe 31.5497615591 54.49016535 31.5166655134
Fe 32.9929563114 55.9887253956 33.0414624531
Fe 34.3885338039 54.5218966213 31.5238885172
Fe 35.924122914 55.9968525035 33.0101298159
Fe 37.2564040787 54.5221220199 31.5376680065
Fe 38.7804467871 55.9296313293 32.9726468576
Fe 40.1690829325 54.478790427 31.6274243294
Fe 41.6380463693 55.9285336533 33.0469772791
Fe 43.009839342 54.5135488009 31.5314999752
Fe 44.4917634984 55.917289144 33.0503266082
Fe 45.9202882362 54.5227337174 31.5459101351
Fe 47.4067839159 55.911469205 32.9690056028
Fe 48.7401906832 54.5478398439 31.6174530654
Fe 50.1752518821 56.0106484075 33.060956606
Fe 51.602919584 54.5663641448 31.5999510333
Fe 53.071491761 56.0148331793 33.0411263906
Fe 54.5826688399 54.5163231667 31.6102166444
Fe 55.9689380411 56.0046479305 33.0391463173
Fe 7.46777696e-04 5.35252631e-04 34.4543973423
Fe 1.4055705069 1.3974466506 35.8313401646
Fe 2.8628277696 0.0351480037 34.4802175605
Fe 4.2935586688 1.4195312286 35.8878715531
Fe 5.686420157 0.0539882715 34.45386294
Fe 7.173707279 1.4685056195 35.824259164
Fe 8.6282931623 57.396462393 34.427344464
Fe 10.0872858234 1.471315755 35.8717834167
Fe 11.4483621428 57.3609135311 34.460064077
Fe 12.9399739956 1.4482810116 35.8183418484
Fe 14.3680691057 57.383255331 34.4798624737
Fe 15.7756895613 1.4726864614 35.9225123326
Fe 17.2162621988 57.3609304774 34.4668618255
Fe 18.6592337602 1.4225679671 35.8284027155
Fe 20.1261946905 57.372472548 34.4255544449
Fe 21.534716336 1.405157599 35.8931803316
Fe 22.9758084214 57.3600502381 34.4405053592
Fe 24.3425922278 1.3777493949 35.8185167282
Fe 25.7824104293 0.0268542496 34.4199699399
Fe 27.2851327829 1.397904054 35.8770291104
Fe 28.6818912985 0.0080153567 34.4637841126
Fe 30.1495458458 1.4673867579 35.8284480187
Fe 31.5685210048 0.0245047182 34.4102927114
Fe 33.0428277793 1.4711177979 35.8628452737
Fe 34.4966016608 57.3889919734 34.4756223534
Fe 35.861793798 1.4077651369 35.9053598393
Fe 37.2914181219 57.3968953027 34.4076951203
Fe 38.7391069387 1.4831292714 35.8506988924
Fe 40.144058501 57.3906816808 34.4631937957
Fe 41.6031169391 1.4192350557 35.8917369761
Fe 43.0200899305 57.3644068761 34.4217211761
Fe 44.4906834351 1.4693928263 35.9043777618
Fe 45.8890846632 0.0499295322 34.4434474637
Fe 47.3087798885 1.4006254436 35.8846442347
Fe 48.7898248702 57.3760495414 34.4512718187
Fe 50.2348692872 1.4483467935 35.8817981421
Fe 51.6960105992 0.0425327861 34.397086714
Fe 53.078637399 1.4719530899 35.9115087963
Fe 54.4986203938 0.01518642 34.4118813565
Fe 55.9235433623 1.4606653328 35.8513775475
Fe 0.024948025 2.8394267854 34.4224452712
Fe 1.4440324042 4.256776754 35.9076094564
Fe 2.8183218596 2.8638761298 34.4918355689
Fe 4.2858131889 4.250590407 35.8868589714
Fe 5.6845830936 2.884194296 34.3833444374
Fe 7.1304626051 4.2834007811 35.8604740101
Fe 8.5915638804 2.8768522014 34.4305566329
Fe 10.008012208 4.3589390335 35.8200550605
Fe 11.5063988811 2.8476281718 34.480748841
Fe 12.8814926616 4.261591804 35.8685366326
Fe 14.3716929555 2.832639827 34.3995678457
Fe 15.8375772797 4.2945893912 35.8950876377
Fe 17.2726370333 2.815886137 34.4098507347
Fe 18.6299626235 4.3190628401 35.8390265761
Fe 20.0568732155 2.8383552675 34.3952851215
Fe 21.5467356393 4.2742949149 35.8656664528
Fe 22.9718418404 2.8182921039 34.4774306488
Fe 24.3996628928 4.2571448358 35.8907450508
Fe 25.851461627 2.8706329331 34.4422276182
Fe 27.2359666517 4.2594411463 35.8734937655
Fe 28.7067429863 2.9063174824 34.4173839676
Fe 30.1862756298 4.298042362 35.8768081734
Fe 31.6184052682 2.8953959445 34.4749042027
Fe 32.9618734156 4.2812543034 35.9187257717
Fe 34.4306431584 2.8282720635 34.4482878242
Fe 35.8663522855 4.3619183879 35.8841301778
Fe 37.2727923711 2.9153787885 34.4929611697
Fe 38.7048609227 4.3541930671 35.8765895888
Fe 40.2173989779 2.8505551003 34.4232370024
Fe 41.6243954688 4.3282659381 35.8210889135
Fe 43.0270391421 2.8450784544 34.4290788467
Fe 44.4792283722 4.3187578807 35.8575076141
Fe 45.9022829393 2.8913167414 34.4597656499
Fe 47.3677099396 4.3386276026 35.8612308805
Fe 48.7779183555 2.8242129685 34.4180148662
Fe 50.2163819661 4.2771890554 35.8970301348
Fe 51.6504597046 2.9276349409 34.4859282883
Fe 53.0531180697 4.3349281453 35.9136717481
Fe 54.4808664531 2.9160222341 34.386181294
Fe 55.9335398983 4.3424645801 35.8479407769
Fe 57.3477018659 5.710075929 34.4574106951
Fe 1.4209574347 7.2224722439 35.84053028
Fe 2.8478748725 5.7806499684 34.3878226424
Fe 4.3477390841 7.1807408973 35.8773615291
Fe 5.7513482493 5.7362911755 34.4647137869
Fe 7.1234170124 7.1895325981 35.8845106556
Fe 8.6617039982 5.7462967389 34.4709455145
Fe 10.0777814111 7.1737919221 35.9177512426
Fe 11.4751030577 5.7013216915 34.4614643663
Fe 12.9696149158 7.2294766868 35.9278345222
Fe 14.3780601687 5.7706910604 34.4953024983
Fe 15.8186965606 7.1632622969 35.9025218263
Fe 17.2218427635 5.7308432136 34.4195535632
Fe 18.624639797 7.1477865418 35.8565780648
Fe 20.1156965398 5.7493047482 34.3923255305
Fe 21.5419379387 7.1698133866 35.886346854
Fe 22.9161290106 5.7652357118 34.3849627645
Fe 24.4134541481 7.1499966001 35.9118233289
Fe 25.8238469872 5.6898118387 34.4624877767
Fe 27.2140449269 7.1597969024 35.8946460407
Fe 28.7264073499 5.7164236727 34.4433213467
Fe 30.1053682655 7.2268468911 35.8619852752
Fe 31.5331307268 5.7039793616 34.3871389554
Fe 33.027545127 7.1340224823 35.8588926824
Fe 34.4111943848 5.6924284346 34.4932970304
Fe 35.9278930381 7.1309826751 35.8751523494
Fe 37.3614237669 5.7945917008 34.4475475668
Fe 38.7800620628 7.1771222566 35.853110853
Fe 40.1675609645 5.7316631909 34.4294868446
Fe 41.5955937697 7.1958678571 35.8879416931
Fe 43.0070953601 5.7462903959 34.4046955836
Fe 44.4743154682 7.1434770316 35.8257008253
Fe 45.8750564794 5.7313656085 34.4771965599
Fe 47.3278880473 7.1987026344 35.82783733
Fe 48.7354818048 5.7768397432 34.4702893044
Fe 50.2050892354 7.1435220275 35.9253002339
Fe 51.6732631756 5.7130439454 34.4497491404
Fe 53.1492105901 7.1591176691 35.8772694844
Fe 54.5261871235 5.7490785112 34.4549399512
Fe 55.9808066329 7.1919095419 35.8516780683
Fe 57.3605638996 8.6268374228 34.4229624238
Fe 1.4716517372 10.0391045771 35.9095823105
Fe 2.821885736 8.5924977397 34.4440693788
Fe 4.3263530012 9.9964851028 35.8803313171
Fe 5.7328987959 8.6364264827 34.4064288154
Fe 7.159953375 10.0485857361 35.9276557791
Fe 8.6136988899 8.6366780158 34.3887298625
Fe 9.9888660202 10.0707260488 35.8824215704
Fe 11.4247910333 8.5679448548 34.4869123058
Fe 12.8925457373 10.1010448415 35.8594568812
Fe 14.3391958759 8.6504054149 34.39424015
Fe 15.8298710649 9.9982952589 35.8434092626
Fe 17.2547600171 8.5923201777 34.404644779
Fe 18.7081036015 10.0084917888 35.8296364153
Fe 20.0965548984 8.5693116113 34.4725747299
Fe 21.5093497661 10.0678837816 35.849446427
Fe 22.9719020414 8.5903665788 34.4239763916
Fe 24.4298692376 10.0015219913 35.8278831463
Fe 25.857495652 8.5735228715 34.4401845986
Fe 27.2677867732 10.0453408236 35.8515904093
Fe 28.6599226092 8.5718697292 34.4580384705
Fe 30.1486499439 10.0949558596 35.8403303034
Fe 31.573611111 8.5845176687 34.4601400264
Fe 33.0149308822 10.0809603675 35.8602963777
Fe 34.3845969737 8.5819038992 34.4952092173
Fe 35.8362341572 10.0870822967 35.8592746325
Fe 37.3554619038 8.5743361006 34.4433798013
Fe 38.7533957165 10.0313779112 35.8875483121
Fe 40.1449557597 8.6341120004 34.4369113154
Fe 41.6054375767 10.096367413 35.9230267635
Fe 43.0405081188 8.5755165846 34.4845018834
Fe 44.4444001698 10.0836668469 35.9120586093
Fe 45.9258993987 8.6087073218 34.441197386
Fe 47.4043681094 10.0117141593 35.8503286488
Fe 48.791725197 8.577466353 34.4878553616
Fe 50.2221381435 10.0599184759 35.9055365498
Fe 51.6851436438 8.5985224056 34.4489988707
Fe 53.1382905726 10.0798867204 35.9269430455
Fe 54.51101455 8.6338542951 34.4970568681
Fe 55.9416658059 10.0210116827 35.8991980959
Fe 0.0479883903 11.4862192053 34.438466097
Fe 1.3820480701 12.9479724653 35.8655304366
Fe 2.8675939253 11.480010816 34.4445985136
Fe 4.2857053585 12.9022837953 35.9131591413
Fe 5.7189419352 11.5040229543 34.4585604498
Fe 7.1687394034 12.9421793986 35.911461365
Fe 8.554776076 11.4905042664 34.4732274644
Fe 10.0809739335 12.8857437146 35.8520710052
Fe 11.4538249134 11.4807903977 34.4085700691
Fe 12.9008122308 12.9386813982 35.8491960864
Fe 14.306553957 11.534247051 34.449296714
Fe 15.8402544758 12.9138047773 35.894487121
Fe 17.2242014015 11.5244083638 34.4237760689
Fe 18.7069415736 12.9329833073 35.8427229996
Fe 20.041774602 11.5171454696 34.4445266151
Fe 21.4947205705 12.9343410098 35.8769256161
Fe 22.9977339792 11.4398771672 34.4039271449
Fe 24.3998220636 12.9392894374 35.8600887384
Fe 25.8715597827 11.49266221 34.4140514128
Fe 27.2315921724 12.8576593444 35.8508611358
Fe 28.6437797939 11.4587264263 34.4454594289
Fe 30.1642584718 12.8710628425 35.9309534613
Fe 31.5444582878 11.4482240045 34.4029914258
Fe 33.0331190929 12.9247962639 35.8202273898
Fe 34.4894179464 11.4831896795 34.4252129569
Fe 35.884613748 12.9608703121 35.9002126199
Fe 37.2818066536 11.4510641166 34.4341367042
Fe 38.7108899731 12.9013813716 35.9196113624
Fe 40.2298214907 11.4777943577 34.485839404
Fe 41.6041133025 12.9403943342 35.8668696042
Fe 43.0979054592 11.4811826334 34.3831636787
Fe 44.4661841708 12.9683188897 35.8420162572
Fe 45.8815298808 11.4940560392 34.4770991847
Fe 47.3995157752 12.9500698474 35.8856878717
Fe 48.7606250091 11.4929300635 34.3852831962
Fe 50.1913958823 12.9002978093 35.8739757797
Fe 51.6660918001 11.5258271618 34.3831710127
Fe 53.1049886442 12.8911242721 35.8254200919
Fe 54.5299658441 11.4808865259 34.450145964
Fe 55.9475190228 12.9632376357 35.8722445012
Fe 0.033686206 14.3243921288 34.4079812893
Fe 1.3926982783 15.7802760563 35.8509414839
Fe 2.902412263 14.2926429034 34.4466482121
Fe 4.2639675464 15.8294681924 35.9046041652
Fe 5.7466554439 14.3932576239 34.417780415
Fe 7.1227649643 15.7393199072 35.9101287265
Fe 8.5771991635 14.309021664 34.4152218691
Fe 10.0708812435 15.7350188463 35.8551313823
Fe 11.486479211 14.3830258647 34.4908652488
Fe 12.9443317356 15.7831519616 35.9061412796
Fe 14.3497767915 14.3780668344 34.3954356562
Fe 15.8044649613 15.8362315235 35.8307943521
Fe 17.1649586083 14.3745777945 34.4721994048
Fe 18.6747459727 15.8239561117 35.9130158926
Fe 20.1099614082 14.3554115792 34.4249161863
Fe 21.4916363919 15.7559387466 35.9080675042
Fe 22.9417239357 14.3216024632 34.435871778
Fe 24.4470836619 15.7856992983 35.8365135713
Fe 25.7957507383 14.4024393398 34.4169568306
Fe 27.3196597827 15.7434273101 35.9246904147
Fe 28.7485004586 14.3628429497 34.4460893006
Fe 30.1613199123 15.7839410841 35.8506218185
Fe 31.5495516354 14.3308907429 34.3855831992
Fe 33.0214195324 15.8261216384 35.9119064319
Fe 34.4584850231 14.305510744 34.4814911409
Fe 35.8499255339 15.8276394239 35.8424240229
Fe 37.2909463798 14.3268074989 34.422961267
Fe 38.8026339539 15.8131497989 35.8687052839
Fe 40.2228882746 14.3775225833 34.4934033752
Fe 41.6150471547 15.8358640749 35.8393765602
Fe 43.0805284078 14.4035272883 34.4380289276
Fe 44.5182259698 15.7371236846 35.9129524776
Fe 45.9063710818 14.3393437111 34.4619881186
Fe 47.3579508064 15.7318290685 35.899810331
Fe 48.8354155784 14.3913473599 34.4666074391
Fe 50.2282816633 15.7364823946 35.8702280831
Fe 51.6266296466 14.3573055955 34.4410883403
Fe 53.1022871394 15.7940244718 35.9008513155
Fe 54.5631568591 14.3660103764 34.3835076329
Fe 55.9466466113 15.7600552122 35.8977202806
Fe 57.3657008684 17.2430553906 34.3973849297
Fe 1.407118624 18.6467946112 35.8414948529
Fe 2.8208652588 17.1922905196 34.4970063733
Fe 4.3497702122 18.6806135556 35.8727575897
Fe 5.7288166556 17.2108118794 34.3944106334
Fe 7.1763115302 18.631810956 35.8188536833
Fe 8.5932022313 17.1852833172 34.4448691624
Fe 10.096854097 18.7100010175 35.8708346204
Fe 11.4303587064 17.2026308712 34.4034322185
Fe 12.8932236148 18.6329738291 35.9310845314
Fe 14.3219478626 17.1956059326 34.4902305995
Fe 15.7880156847 18.6234975976 35.8637483601
Fe 17.2266456912 17.2325389508 34.4543897458
Fe 18.6560191976 18.6389019812 35.8179110686
Fe 20.0904841459 17.2733066308 34.4060238478
Fe 21.5702153384 18.6268214792 35.8467266826
Fe 22.9624988281 17.1640825251 34.4653378647
Fe 24.3712123853 18.649345925 35.9286196583
Fe 25.812025193 17.2753825348 34.3922555087
Fe 27.2755640103 18.6640353943 35.8449288463
Fe 28.7469786531 17.1961705743 34.4658333661
Fe 30.134696378 18.6272578615 35.8467109549
Fe 31.6217416129 17.2642602001 34.3840957413
Fe 33.05598723 18.6270222581 35.8543518166
Fe 34.3846589524 17.1692477816 34.4567471092
Fe 35.8518055049 18.6194326465 35.8232317596
Fe 37.3535021019 17.2054175288 34.4604184636
Fe 38.7049629126 18.622362425 35.8469464792
Fe 40.127350529 17.2218108195 34.4454996774
Fe 41.5957138404 18.6050140681 35.8709452301
Fe 43.0033384049 17.1955420932 34.389313813
Fe 44.5400449593 18.6273300789 35.8698812656
Fe 45.8690258573 17.1719327513 34.4195398242
Fe 47.3503735703 18.6070009173 35.8440368218
Fe 48.7729013656 17.2684682575 34.4544028727
Fe 50.174143488 18.5987311425 35.9287835699
Fe 51.609418818 17.2086521308 34.4874791149
Fe 53.1093347791 18.7098260517 35.8749506689
Fe 54.4829461201 17.1905091177 34.4618447854
Fe 55.9397751561 18.6662949014 35.8223149994
Fe 57.3556646036 20.0414162994 34.4080719526
Fe 1.4837293957 21.4788065452 35.8735633728
Fe 2.8707806119 20.0331228017 34.4083126173
Fe 4.2626704747 21.5791835118 35.8318871957
Fe 5.7047376063 20.0811673517 34.4837249759
Fe 7.2202010062 21.5103714525 35.8653280826
Fe 8.6624554484 20.0939195892 34.4213907739
Fe 10.0806124569 21.5130974329 35.8872421432
Fe 11.5311629111 20.0691444696 34.4242386124
Fe 12.8607045316 21.4995104693 35.9211804668
Fe 14.3522668857 20.1275062478 34.4628502316
Fe 15.743710437 21.4959912542 35.9313376498
Fe 17.2767433635 20.0890746872 34.39658306
Fe 18.6407184376 21.5705233835 35.9014426717
Fe 20.0639441891 20.0504169316 34.4767245406
Fe 21.5063576714 21.5251149753 35.8299773211
Fe 22.9173873145 20.0362408102 34.4352901598
Fe 24.422764436 21.4875339985 35.8652289979
Fe 25.7872268523 20.1343210855 34.4190671247
Fe 27.2826985065 21.50895316 35.83596524
Fe 28.6503164829 20.1409369748 34.4587920131
Fe 30.0846937284 21.5225794902 35.931246688
Fe 31.5668365411 20.1090714641 34.4005621257
Fe 33.0202696584 21.4920038478 35.885137271
Fe 34.4337743154 20.1203643498 34.4737726332
Fe 35.8637126311 21.5052109191 35.888880045
Fe 37.2710933249 20.1293500181 34.4534373405
Fe 38.7382376842 21.5336135677 35.9213987123
Fe 40.1412681935 20.0809928576 34.4364276174
Fe 41.6432574042 21.5625243983 35.900887538
Fe 43.0272037775 20.0964546318 34.4657540744
Fe 44.5294845896 21.5202383823 35.901444228
Fe 45.8656460931 20.0880868783 34.4846660629
Fe 47.3665993327 21.5618265317 35.8239155347
Fe 48.7844651909 20.0665159553 34.4372711486
Fe 50.2382610432 21.5590696701 35.8270861543
Fe 51.630278118 20.0717456421 34.4376980188
Fe 53.0984233408 21.5404833207 35.8786113797
Fe 54.4994378183 20.1210420336 34.4031314354
Fe 55.9271439811 21.4754721443 35.8687904092
Fe 0.0347338969 22.9578648071 34.4414647671
Fe 1.472915902 24.4005543869 35.8217455138
Fe 2.8976415588 22.9040722655 34.4428729978
Fe 4.2536087245 24.4370918423 35.8891665847
Fe 5.7850588718 22.9550621229 34.4150051196
Fe 7.1444066284 24.4444357708 35.8539117074
Fe 8.6253803272 22.9236219433 34.4211428658
Fe 10.0756441673 24.3604568313 35.8985762444
Fe 11.5063665316 22.910018146 34.4310370055
Fe 12.9460919322 24.4035740379 35.8836807486
Fe 14.3699008343 22.9879403202 34.4108657426
Fe 15.7610210104 24.35843628 35.9235152539
Fe 17.1683776987 22.9082874843 34.3842310645
Fe 18.6482263748 24.4489983599 35.8613481599
Fe 20.126353241 22.9304450177 34.4821833872
Fe 21.4961488187 24.3674122431 35.8370881132
Fe 22.9989946489 22.9799918145 34.481917477
Fe 24.3725141483 24.419731671 35.9059286035
Fe 25.8122231354 22.9477350063 34.457178707
Fe 27.2677316789 24.3551952225 35.8901837994
Fe 28.7087988418 23.0102913932 34.4002947867
Fe 30.1495899081 24.393950632 35.8636197879
Fe 31.5507866789 22.9284562478 34.4924805117
Fe 33.0088568654 24.3417829971 35.8232171905
Fe 34.4079088963 22.9037679888 34.3944889565
Fe 35.8336460985 24.4134259276 35.8357736652
Fe 37.3338020004 22.9821453208 34.4687845631
Fe 38.7543473171 24.4520919287 35.8835329584
Fe 40.1955933629 23.0044540584 34.4071750662
Fe 41.6690004663 24.3583839586 35.9060230372
Fe 43.0708265349 23.0052978431 34.4563210409
Fe 44.4632851788 24.4264357446 35.8818262104
Fe 45.8731263599 22.9919409385 34.4129859431
Fe 47.4022099342 24.3853510012 35.8763658656
Fe 48.7506291913 23.0089090109 34.4665508405
Fe 50.2332937064 24.4166127238 35.8704166294
Fe 51.6632351579 22.9687741734 34.3982841786
Fe 53.1406652863 24.3488811667 35.8287885896
Fe 54.5032282071 22.922692086 34.4447621839
Fe 55.9450406222 24.369263825 35.821587706
Fe 57.3971280242 25.8640624112 34.4111232846
Fe 1.459457797 27.2586952927 35.9032630778
Fe 2.8869642879 25.7952333032 34.3915550887
Fe 4.2724762408 27.2581163501 35.8833663117
Fe 5.7497177062 25.8561609522 34.4339272004
Fe 7.2097174417 27.2126224994 35.826348776
Fe 8.6502154898 25.7999679703 34.3836816521
Fe 10.0526339508 27.2825651538 35.9257174057
Fe 11.5043809095 25.8222081119 34.3850620114
Fe 12.8766874257 27.2202412108 35.87760395
Fe 14.2958529865 25.8608478208 34.3943585661
Fe 15.7484182785 27.2494039335 35.8277848568
Fe 17.1938311146 25.8764323221 34.4658108025
Fe 18.6893823262 27.2708657926 35.858089148
Fe 20.0696745456 25.7791356398 34.4405014546
Fe 21.5221626627 27.2501898269 35.9095310117
Fe 22.9440055119 25.8427833055 34.4069954641
Fe 24.3560715612 27.3133098714 35.8209416162
Fe 25.8118387041 25.8377123397 34.4224896698
Fe 27.2775642863 27.2769694199 35.8689336892
Fe 28.6614530436 25.8680926556 34.3907494062
Fe 30.1048704452 27.2991258183 35.832200906
Fe 31.5363899567 25.8022935515 34.4386488455
Fe 32.9791885745 27.2730597365 35.8937961746
Fe 34.4412413688 25.8098719309 34.4080555319
Fe 35.9000952415 27.2444670524 35.910685942
Fe 37.328126907 25.8493243274 34.3872047878
Fe 38.7623676535 27.2225959283 35.8793170699
Fe 40.1261341311 25.8475052882 34.4870174633
Fe 41.608616932 27.2700527348 35.9310426993
Fe 43.0615366259 25.8877714202 34.4776156872
Fe 44.5078786725 27.2496273335 35.8944375537
Fe 45.8985527057 25.8810808641 34.4087366087
Fe 47.3772543106 27.2786916575 35.8395846661
Fe 48.7424225909 25.8367173579 34.4747082548
Fe 50.2644635636 27.2338777579 35.9254536445
Fe 51.6708549248 25.8213812505 34.4497129146
Fe 53.1381445319 27.3196141952 35.927081691
Fe 54.5127808357 25.7930579709 34.487376985
Fe 55.9974536941 27.2867347551 35.8965125825
Fe 57.3690736997 28.7122029446 34.4013845205
Fe 1.394259086 30.1599016994 35.8757185625
Fe 2.8787877113 28.6983057462 34.4727440101
Fe 4.2478872898 30.1276746865 35.8879828441
Fe 5.7035321366 28.7008200212 34.4721565522
Fe 7.2194495578 30.1235752075 35.886602615
Fe 8.5553549087 28.667421831 34.4088140715
Fe 10.0117750059 30.0843034208 35.8999910256
Fe 11.4435110893 28.6664636803 34.4911907063
Fe 12.8896041642 30.1681798157 35.9115446194
Fe 14.379307688 28.7133817573 34.4340950068
Fe 15.7916087372 30.1511950763 35.8688468308
Fe 17.2373000319 28.7503749255 34.3890362805
Fe 18.5975957208 30.1501027365 35.8494516947
Fe 20.0640100444 28.7444966062 34.4932341928
Fe 21.5431417427 30.1627023093 35.8522439868
Fe 22.9599926284 28.7544662204 34.3884879251
Fe 24.3548797227 30.1399127193 35.9201541793
Fe 25.8861108887 28.648325078 34.4004852971
Fe 27.2389255565 30.166707584 35.8235444607
Fe 28.6785556703 28.6786322668 34.4955228356
Fe 30.1567732721 30.0861544462 35.8485579905
Fe 31.5870616677 28.7012258901 34.4881766019
Fe 33.0546620403 30.1635441022 35.8662889486
Fe 34.4617881569 28.7005024055 34.4037121685
Fe 35.8575493519 30.1817074567 35.8481692953
Fe 37.316237436 28.645002189 34.4915226334
Fe 38.7830094833 30.1170544891 35.8857466298
Fe 40.2147027678 28.6551172888 34.420974351
Fe 41.635605596 30.1767335933 35.8458474667
Fe 43.1051181918 28.7180082869 34.4175579637
Fe 44.5247075757 30.1888422252 35.8671540496
Fe 45.8727921101 28.6883728338 34.4045133766
Fe 47.3561649239 30.143301867 35.862362727
Fe 48.7935519255 28.7322451222 34.4849327189
Fe 50.1934947273 30.1234754598 35.8504744438
Fe 51.6485904105 28.7294229061 34.407790584
Fe 53.0803501617 30.0786992713 35.8274269635
Fe 54.5869990718 28.6754095902 34.4636158488
Fe 55.9908460876 30.0779956051 35.8248241431
Fe 57.3760967904 31.5946845358 34.3892977352
Fe 1.3941654494 33.0153256331 35.8786156956
Fe 2.8964163727 31.5243949492 34.447342493
Fe 4.3450806514 32.9907103136 35.8548373386
Fe 5.7226902007 31.5622592355 34.4570316916
Fe 7.2284407757 32.989693742 35.889838813
Fe 8.6573899277 31.5239734843 34.3872936708
Fe 10.1021915046 32.9522660045 35.8714323447
Fe 11.4969586238 31.5608631392 34.3848333136
Fe 12.9576733889 33.0082541839 35.8627472014
Fe 14.4049474297 31.5706864971 34.421170381
Fe 15.8002500211 33.0190042844 35.8796427101
Fe 17.1943964507 31.5195868096 34.4400490973
Fe 18.6459221489 32.993027239 35.8806609968
Fe 20.09040427 31.5896065968 34.4474695898
Fe 21.561859095 33.0034751335 35.831187345
Fe 22.9956016617 31.5606802083 34.4730524426
Fe 24.4495919809 33.0380385029 35.8419475762
Fe 25.8823440213 31.610552506 34.4085645302
Fe 27.2911237134 33.0373041327 35.8300784798
Fe 28.7264982758 31.595700711 34.4043737524
Fe 30.1202809274 32.9706996482 35.8824071474
Fe 31.5497305163 31.6055940925 34.4574213094
Fe 32.9943637995 33.0007905596 35.8849330432
Fe 34.489714609 31.5733734284 34.3930715849
Fe 35.8589221144 32.9543239417 35.8530419943
Fe 37.3044967346 31.5151467943 34.4572503422
Fe 38.7050574118 32.9899956719 35.8762730519
Fe 40.2044215829 31.5657214828 34.4657180734
Fe 41.5905171365 32.9520761023 35.8794725856
Fe 43.0993069434 31.6132316676 34.3828131194
Fe 44.4534603881 32.9965014334 35.8632124657
Fe 45.8715792734 31.5782549456 34.4940466334
Fe 47.3656214807 33.0465567301 35.866039646
Fe 48.8135213458 31.6070154725 34.4505624246
Fe 50.2705383836 33.029143606 35.8206663463
Fe 51.6196674246 31.5955596871 34.4747982907
Fe 53.0836977798 33.0521073216 35.8220725605
Fe 54.5796073239 31.5320896046 34.4831580974
Fe 56.0028783447 32.9655928527 35.8491846215
Fe 57.3875306087 34.4208685906 34.4052625618
Fe 1.4718831188 35.8873121901 35.8679890289
Fe 2.8816932632 34.4910521229 34.4180301476
Fe 4.3053513728 35.8539446452 35.8434272323
Fe 5.7746062135 34.460009604 34.4350401723
Fe 7.1219343042 35.8629639997 35.8350996286
Fe 8.632259724 34.4900870606 34.4841370176
Fe 10.086163114 35.9192612091 35.9080550057
Fe 11.5297171313 34.4001412815 34.4270994612
Fe 12.9579554269 35.8925204466 35.8953889976
Fe 14.3724877057 34.4623296869 34.4137526144
Fe 15.8411650868 35.8431054364 35.8331446138
Fe 17.2557480338 34.4454219866 34.4562274337
Fe 18.6374212014 35.868748382 35.8278976607
Fe 20.0855081314 34.3955915705 34.4826761207
Fe 21.5723082748 35.8328534189 35.9173701618
Fe 22.9109510239 34.4333714916 34.4659291855
Fe 24.437816413 35.8406090658 35.8306406019
Fe 25.8664887958 34.4012797546 34.4851109291
Fe 27.2304002218 35.8249999526 35.9011326117
Fe 28.6733802143 34.4730844009 34.4795421839
Fe 30.1262677676 35.9040232025 35.9230271082
Fe 31.5650740548 34.4246408659 34.4277793174
Fe 33.0050283024 35.8419215337 35.9068775813
Fe 34.4096569841 34.387919638 34.4420007156
Fe 35.8345698701 35.904668738 35.8995246006
Fe 37.3103525394 34.4699619006 34.3872121034
Fe 38.7018421743 35.8506537541 35.9042980719
Fe 40.1793195647 34.3999639384 34.4047447036
Fe 41.5977837906 35.918068723 35.8961765129
Fe 43.100429931 34.4701294324 34.4405936273
Fe 44.4612656317 35.9276408731 35.8407517222
Fe 45.8809558104 34.4270346913 34.4388680555
Fe 47.3008221354 35.8751247583 35.8643577649
Fe 48.7734706391 34.4849215739 34.4876352364
Fe 50.2496442538 35.842547443 35.8231387642
Fe 51.6203406757 34.4194207323 34.4280665702
Fe 53.0921517328 35.8548518224 35.8721660671
Fe 54.4848804846 34.4792291033 34.4718897249
Fe 55.9301974738 35.8497802108 35.8534794112
Fe 57.3889217869 37.3367320538 34.4248081335
Fe 1.4245675387 38.694126199 35.9057826061
Fe 2.8170747272 37.3417969039 34.4545250823
Fe 4.2747939514 38.7555820488 35.8499568864
Fe 5.7734884076 37.3367136411 34.4868962587
Fe 7.2093439382 38.7465674237 35.8878788224
Fe 8.5912791592 37.2654990993 34.4393030551
Fe 10.051024004 38.7578254722 35.8880564171
Fe 11.4959732255 37.2525185969 34.4473236755
Fe 12.9262587123 38.7899281167 35.8731704327
Fe 14.3407064218 37.3154663343 34.3890445938
Fe 15.8117838999 38.7686974481 35.9024281829
Fe 17.2027332109 37.3070029843 34.4818503531
Fe 18.6837431228 38.7048595239 35.8926793483
Fe 20.1147307145 37.2570679377 34.488594164
Fe 21.5152526537 38.6961507769 35.8668187428
Fe 22.9751252877 37.2537188532 34.4434469686
Fe 24.4484247753 38.7756567445 35.9133308538
Fe 25.8681738936 37.3496946907 34.4043674795
Fe 27.2479911937 38.7843615619 35.9246475708
Fe 28.6795211415 37.3240744003 34.4518029866
Fe 30.1200236455 38.7762417498 35.8654720021
Fe 31.6139189755 37.3514446038 34.4281573155
Fe 33.0247110494 38.7195125548 35.8720039214
Fe 34.4647813946 37.2527174408 34.4006974826
Fe 35.8342586106 38.7673467511 35.8556298521
Fe 37.2967365879 37.2684401821 34.4873402692
Fe 38.7448884248 38.6886376853 35.8770948001
Fe 40.1476301208 37.2996701935 34.4093597152
Fe 41.5905877548 38.7183719902 35.8752955001
Fe 42.9929823285 37.2790771123 34.4427584451
Fe 44.4323232849 38.7690371641 35.8310003628
Fe 45.8701385612 37.3085543728 34.480532011
Fe 47.3529337095 38.7019877642 35.9146079679
Fe 48.784679622 37.3016475206 34.4020466182
Fe 50.1713924856 38.7879286335 35.8322830111
Fe 51.6166519265 37.3191061209 34.4207302818
Fe 53.0604078726 38.7203702438 35.8301213853
Fe 54.5293880474 37.3108373019 34.4465053039
Fe 55.9441034239 38.7107098765 35.877827635
Fe 0.0494465316 40.1282650968 34.4417105338
Fe 1.4567134753 41.5692785573 35.8916606881
Fe 2.8196652238 40.1237862514 34.4588411391
Fe 4.3052379827 41.6519598558 35.930227467
Fe 5.6864918311 40.1998035932 34.4356724197
Fe 7.2002828757 41.6553296447 35.8796616235
Fe 8.5753869439 40.2066009122 34.4598268134
Fe 9.9924019595 41.5683424619 35.9240559108
Fe 11.4919629352 40.1338299357 34.3837908588
Fe 12.9335127579 41.6124400539 35.909161684
Fe 14.3742473978 40.1846705807 34.3918371342
Fe 15.8075554402 41.6297622298 35.8402726678
Fe 17.2660765325 40.2365375844 34.3989866832
Fe 18.6374077023 41.5793276241 35.9184387854
Fe 20.0570344553 40.1282648371 34.4006976215
Fe 21.5378338052 41.6463258405 35.9298166974
Fe 22.9245486544 40.138627022 34.4352106428
Fe 24.4471996828 41.5706174535 35.9122239632
Fe 25.8317038254 40.2023427895 34.3997767345
Fe 27.2174252623 41.6221567413 35.865467741
Fe 28.7009267166 40.2065072415 34.3983080182
Fe 30.1342096137 41.5767279192 35.8619806932
Fe 31.5434116619 40.1367314115 34.4365251434
Fe 33.0303741528 41.6242292958 35.8418379808
Fe 34.4069768411 40.2243082571 34.4128774478
Fe 35.9257318026 41.5672363781 35.8418347637
Fe 37.3161880977 40.2323769579 34.4072262313
Fe 38.7010740088 41.6557189302 35.8576560001
Fe 40.1488276022 40.1523680999 34.469429765
Fe 41.6310618106 41.6382278805 35.9099459276
Fe 43.0102305263 40.196722381 34.3996823707
Fe 44.4621831748 41.6575501567 35.8912163944
Fe 45.9752545676 40.1440757747 34.4490484771
Fe 47.4049792224 41.6661539489 35.9183367397
Fe 48.8089116561 40.2377306942 34.4436844208
Fe 50.192393508 41.5879168804 35.8359407878
Fe 51.6518238894 40.2141071205 34.4688015286
Fe 53.0605474199 41.6693015705 35.8815973555
Fe 54.5859199458 40.1838220301 34.3994973289
Fe 55.9411661062 41.6459269368 35.871112343
Fe 0.0305252208 43.0115213542 34.4247573555
Fe 1.4247142342 44.5217150652 35.8518034998
Fe 2.8971496258 43.0675991506 34.3854518457
Fe 4.2808262085 44.5147659179 35.8798186216
Fe 5.6887119159 43.0766656131 34.4035687489
Fe 7.1200729373 44.5419362569 35.8346588176
Fe 8.5642379289 43.0964320045 34.4757318612
Fe 10.06746416 44.4734315942 35.8526444031
Fe 11.4297724276 43.04571026 34.4905766141
Fe 12.8960144583 44.4884849239 35.8661431383
Fe 14.3886745619 43.0763266835 34.4435186885
Fe 15.7672708134 44.5353444414 35.8245283701
Fe 17.25643988 43.0758149741 34.398874849
Fe 18.7102311741 44.472227092 35.8790084283
Fe 20.0592959974 43.0653407315 34.445056716
Fe 21.5757700042 44.4366462041 35.8325750927
Fe 22.9076610327 43.0431769007 34.4315782217
Fe 24.4027877805 44.4782503554 35.89103036
Fe 25.8741607031 43.0623600047 34.4631535617
Fe 27.2829057567 44.5205098606 35.8256453332
Fe 28.673608622 42.9942138037 34.4390691969
Fe 30.1317009732 44.4814384557 35.8670134111
Fe 31.6024704384 43.0520686868 34.4399444538
Fe 33.029908312 44.449969834 35.878849186
Fe 34.4867584372 43.0741604343 34.476047464
Fe 35.8610996011 44.5202113943 35.8379906356
Fe 37.3112408056 43.0221455232 34.4885738536
Fe 38.742484442 44.4385962857 35.8963526196
Fe 40.2188152623 43.043611081 34.4567260428
Fe 41.6504786731 44.5293635472 35.9301793264
Fe 43.0291459525 43.0145725254 34.4312987351
Fe 44.5333721567 44.5189439404 35.8222425969
Fe 45.8994306887 43.0279940041 34.395090926
Fe 47.3141637503 44.5146792079 35.8879831062
Fe 48.8126190115 43.0699230231 34.4951215627
Fe 50.2118937293 44.486194701 35.8762335293
Fe 51.6982406009 43.036292179 34.3838118809
Fe 53.1123500086 44.515749453 35.8918647625
Fe 54.5311642522 43.0224119894 34.4712613005
Fe 55.9216697536 44.5282173783 35.9280116404
Fe 0.0481382483 45.8657196176 34.4917480747
Fe 1.4725271833 47.3526295203 35.9066950463
Fe 2.8704974061 45.8684189159 34.461299775
Fe 4.3534161946 47.2990534237 35.9095262791
Fe 5.7471451933 45.8734208788 34.4371468562
Fe 7.1719088755 47.4110408518 35.8509846703
Fe 8.5933731324 45.95378453 34.4682109974
Fe 10.0232738723 47.2975648671 35.9307363016
Fe 11.4359854989 45.910387393 34.4151415172
Fe 12.9047522055 47.3292981661 35.8832210882
Fe 14.3089310014 45.9659647383 34.4017691546
Fe 15.7615752838 47.3697877687 35.9327101179
Fe 17.2286622968 45.9752140473 34.4914243221
Fe 18.6230183424 47.403468398 35.8954206032
Fe 20.1478676171 45.9267468345 34.4828354195
Fe 21.5790916135 47.3973078673 35.8274561968
Fe 22.9545184154 45.9260592975 34.3838859829
Fe 24.3475039204 47.3228883175 35.9292762626
Fe 25.8669954868 45.8796784108 34.4408528281
Fe 27.2645337346 47.3141143824 35.9228295179
Fe 28.7352761345 45.8983981189 34.4782960258
Fe 30.1669053901 47.3644325565 35.8761984691
Fe 31.5135347398 45.8704363346 34.459039632
Fe 32.952825431 47.3878410085 35.9216109018
Fe 34.4179628167 45.8872826264 34.468436556
Fe 35.8353685982 47.3555328891 35.8850495393
Fe 37.3137038341 45.8818547163 34.4344963265
Fe 38.7793653128 47.3411646453 35.8574728393
Fe 40.1604664332 45.9419488485 34.4509680182
Fe 41.5912228735 47.3703658058 35.8507238235
Fe 43.0816245476 45.8924771537 34.3888503717
Fe 44.4591445987 47.3407824541 35.8917956273
Fe 45.9332035537 45.8740567973 34.4801394484
Fe 47.3827711537 47.3213462374 35.8863285402
Fe 48.8244841167 45.9497482888 34.4756955983
Fe 50.1701934613 47.3577257339 35.9252289242
Fe 51.6334282075 45.8638242132 34.4797529768
Fe 53.096881774 47.3247469911 35.9136707123
Fe 54.520266256 45.8908217583 34.3947624754
Fe 55.9430973215 47.3232791223 35.8352227882
Fe 57.3719025176 48.7510904941 34.4412551525
Fe 1.4452788434 50.247531617 35.9280263996
Fe 2.8511731153 48.8290443928 34.459559557
Fe 4.2712646629 50.1688683406 35.8790271127
Fe 5.7365682017 48.8064488724 34.406159829
Fe 7.2086259005 50.2509416989 35.8876077371
Fe 8.636624954 48.8333159917 34.4689732909
Fe 9.9994693796 50.2799375777 35.8408616348
Fe 11.4805543142 48.7676244892 34.3954655819
Fe 12.9559777937 50.2003011607 35.8611039235
Fe 14.3444704259 48.7475451933 34.4569470663
Fe 15.7379856444 50.2038755983 35.9217303021
Fe 17.2757286613 48.8035526934 34.4081761278
Fe 18.6955231421 50.2609534052 35.8512029012
Fe 20.1035269612 48.8391940393 34.3925011874
Fe 21.4945179466 50.1687595841 35.9308062518
Fe 22.9888485969 48.7903586031 34.4461113031
Fe 24.4086021277 50.2370011257 35.9203432043
Fe 25.8547479167 48.751465852 34.3891038972
Fe 27.2278624358 50.1962935562 35.8997341503
Fe 28.6920463444 48.8472688244 34.3920518213
Fe 30.1675084977 50.2103085804 35.9229230784
Fe 31.5316585065 48.753211007 34.4524362447
Fe 32.9979499338 50.2729117929 35.842778726
Fe 34.4043701598 48.8116081291 34.4605189774
Fe 35.8802369679 50.2294506203 35.9008421516
Fe 37.337992744 48.7432978937 34.3849856906
Fe 38.7808683125 50.2271757816 35.875285802
Fe 40.1514725632 48.8169616276 34.4004708913
Fe 41.6641109216 50.1891942152 35.8880649755
Fe 43.1071249976 48.7371394244 34.3968009414
Fe 44.4414985809 50.2708267284 35.9112542624
Fe 45.9500139339 48.8356245311 34.4617600359
Fe 47.3209430386 50.1785211873 35.9295536052
Fe 48.8195160836 48.8356861708 34.4926301488
Fe 50.2824565879 50.2744222248 35.8628871684
Fe 51.7021086132 48.7880160124 34.4845120601
Fe 53.1213607399 50.2724653801 35.9108292299
Fe 54.5641635583 48.8290984946 34.4948367531
Fe 55.9603649261 50.232454388 35.876262672
Fe 0.0135383366 51.7106945614 34.4972825192
Fe 1.4254892287 53.0667743292 35.8563455036
Fe 2.8746455166 51.6184777375 34.4256037184
Fe 4.2875554401 53.0750548333 35.9232448648
Fe 5.7538697509 51.640926088 34.4810943538
Fe 7.1781103238 53.100256723 35.8551122151
Fe 8.6453527995 51.6804534902 34.444187627
Fe 10.0998735259 53.150723268 35.8457467361
Fe 11.5268670969 51.7130102357 34.4885639277
Fe 12.9076145341 53.0600779939 35.9199017343
Fe 14.3816852712 51.6684175065 34.484693015
Fe 15.8059499454 53.148762462 35.8975492033
Fe 17.1932862833 51.6360284375 34.3946442019
Fe 18.6565064355 53.1414401956 35.8476832234
Fe 20.1242237994 51.6165340276 34.4576281297
Fe 21.5329289147 53.1205954067 35.8586920529
Fe 23.0107060176 51.6181780734 34.3905195591
Fe 24.3968974151 53.071431571 35.8446331098
Fe 25.8177789334 51.6946092727 34.4566284469
Fe 27.2844680624 53.0806123568 35.8359879586
Fe 28.6723092187 51.6417720476 34.4302149023
Fe 30.1739749327 53.1309022285 35.8485378829
Fe 31.5243011514 51.6971057017 34.4894722926
Fe 33.0112573378 53.0812647493 35.8610418424
Fe 34.4097150048 51.6886192135 34.4517995323
Fe 35.8615055511 53.0901564131 35.8191533506
Fe 37.2650442942 51.7096261584 34.3952480795
Fe 38.7190804283 53.0950074281 35.9138827329
Fe 40.23136015 51.6822944927 34.3972406725
Fe 41.6492365206 53.1203123803 35.8263487133
Fe 43.0956088529 51.6391566531 34.4467817911
Fe 44.5124260098 53.1013804174 35.8724799628
Fe 45.9244744469 51.6100744902 34.3938914494
Fe 47.3239695237 53.1331632121 35.9274289849
Fe 48.8378664058 51.6367082978 34.4779628433
Fe 50.1676761663 53.1240568461 35.8906438291
Fe 51.61121174 51.6520411849 34.4365924655
Fe 53.0595042671 53.0776829899 35.8935042169
Fe 54.5615371528 51.6952354049 34.4349532208
Fe 55.9872048311 53.0871888337 35.9035667553
Fe 57.3570135932 54.5415102639 34.4815293724
Fe 1.4597122549 55.9967202226 35.8234925708
Fe 2.8894401451 54.5641539647 34.3937043491
Fe 4.3594913656 56.015654926 35.92625546
Fe 5.7162919337 54.4852824088 34.4145894161
Fe 7.1514974827 55.9676025814 35.9114298428
Fe 8.5657726156 54.5386693495 34.3993359316
Fe 10.0210482636 55.9919554141 35.9321582562
Fe 11.5088505777 54.5346663529 34.4337433711
Fe 12.9400742512 55.9831716615 35.8858913235
Fe 14.3137583639 54.4756316654 34.4377687836
Fe 15.7956040316 55.9381761022 35.9115862462
Fe 17.2358156008 54.4753183652 34.4310067369
Fe 18.6793933802 55.9261473573 35.9167735294
Fe 20.1246956481 54.5500206775 34.4457063741
Fe 21.4901185632 55.9528231616 35.8210665502
Fe 22.9280229191 54.5589776221 34.4661533253
Fe 24.3591723607 55.9200856247 35.8412942619
Fe 25.8640606643 54.5740452378 34.3866017275
Fe 27.3054821731 55.950436434 35.9082341887
Fe 28.7433938873 54.5774911879 34.3826524149
Fe 30.0843581155 55.9545674108 35.8359675473
Fe 31.5452729388 54.4980873619 34.4141262843
Fe 32.951202629 56.0162190529 35.8206778767
Fe 34.4127075032 54.5828968561 34.4893627129
Fe 35.8445274866 56.0175399667 35.9016095996
Fe 37.2541068742 54.5362176854 34.4168162118
Fe 38.7529461944 55.9883208036 35.9011172083
Fe 40.1670917097 54.5759384613 34.448577488
Fe 41.583317941 55.9360391466 35.8593815547
Fe 43.0584474882 54.542090488 34.4614359841
Fe 44.4670219507 55.9678340567 35.8500130572
Fe 45.9047633677 54.5758584393 34.4402115045
Fe 47.2974301344 55.9531998032 35.8922394858
Fe 48.7945362382 54.5796445448 34.416448313
Fe 50.2707625524 55.91870781 35.890705778
Fe 51.6512540959 54.556691204 34.4024488243
Fe 53.1268792325 55.994267824 35.9194191813
Fe 54.557170528 54.5356245846 34.4682858693
Fe 56.0122156852 55.9989784912 35.9148724018
Fe 0.0505435044 0.0555590444 37.3179896756
Fe 1.3852925101 1.4234595958 38.7404280439
Fe 2.8953455343 57.3999670847 37.3309236023
Fe 4.3519001191 1.4190942686 38.7579835569
Fe 5.7725854411 0.0109087046 37.2716530408
Fe 7.2235439884 1.4643524205 38.7016595775
Fe 8.6486496769 57.3871919901 37.3642703643
Fe 10.0784553145 1.44228187 38.7610040663
Fe 11.5139088517 57.3626279033 37.3425372808
Fe 12.9698354623 1.4548911785 38.7417529513
Fe 14.3183767989 57.3858689245 37.2598051716
Fe 15.7347422634 1.41277666 38.7132046209
Fe 17.1870739245 0.0036598806 37.3472475429
Fe 18.7054974575 1.3920017549 38.7255085063
Fe 20.114814469 0.0270998203 37.342652474
Fe 21.5812389201 1.4215205449 38.7482232791
Fe 22.916468858 57.3425915953 37.3102746597
Fe 24.3647176521 1.3940216113 38.7506544722
Fe 25.8605613151 57.3657482433 37.3264782027
Fe 27.2522840642 1.3821014736 38.6992684575
Fe 28.7091545047 0.0106290292 37.3438394691
Fe 30.1621234651 1.4443986688 38.7056983882
Fe 31.5824533245 0.0173139589 37.3597750357
Fe 33.0500327852 1.4545576579 38.687946498
Fe 34.4488672524 57.3951115644 37.3143152044
Fe 35.8733901861 1.474865996 38.7547993289
Fe 37.2750766642 57.3494260861 37.3189449323
Fe 38.7495929381 1.3977007516 38.7326354238
Fe 40.2342666439 57.3742688258 37.3554694992
Fe 41.5831015032 1.4275792815 38.7446230728
Fe 43.0056609781 0.0386159503 37.3348100974
Fe 44.4400940588 1.4872699699 38.7477160585
Fe 45.9435841022 4.0350124e-05 37.2942707708
Fe 47.4096845593 1.390962676 38.6939877673
Fe 48.8174512719 0.0513336381 37.3377915429
Fe 50.2391688896 1.3937078843 38.7330296472
Fe 51.6444465744 0.0055335474 37.3540146243
Fe 53.1470613639 1.4178846675 38.709370263
Fe 54.5070089162 0.027378714 37.3520578591
Fe 55.9824082052 1.4268810679 38.715262708
Fe 0.0182954104 2.870455245 37.257478969
Fe 1.4206217514 4.2627875704 38.7766228644
Fe 2.8181615803 2.860753753 37.3034318821
Fe 4.2968727932 4.3357979035 38.7415613623
Fe 5.7312557513 2.8229126141 37.3618744916
Fe 7.2182375339 4.2820275233 38.7813505312
Fe 8.6104795371 2.8393991928 37.3600399101
Fe 10.0333389084 4.3554537604 38.6938269423
Fe 11.4688497624 2.8895301707 37.2958247717
Fe 12.9624765393 4.2574398694 38.7530006749
Fe 14.3440026503 2.8995117863 37.2962579808
Fe 15.7510435655 4.2688630729 38.6890343111
Fe 17.19666566 2.8934334322 37.3345802899
Fe 18.610489883 4.2732051389 38.7181505755
Fe 20.097191556 2.8864092511 37.3092562547
Fe 21.4897677151 4.2860191283 38.6886785481
Fe 22.9218518684 2.8848433576 37.356341004
Fe 24.4093076359 4.3154653013 38.7753385189
Fe 25.8077392981 2.8293623235 37.3120402701
Fe 27.2550635689 4.2893889045 38.7139149201
Fe 28.7299458055 2.8256523348 37.2964444238
Fe 30.1264061657 4.2719450279 38.7686167251
Fe 31.5866515337 2.8207009662 37.2913952838
Fe 33.0443965062 4.3049966402 38.7644650548
Fe 34.4248918462 2.8602738134 37.2944118697
Fe 35.8697405352 4.3324418298 38.7241571013
Fe 37.2701569179 2.9009140483 37.2715170302
Fe 38.7829421746 4.3128893961 38.7240610539
Fe 40.1689200362 2.8156221926 37.3101568942
Fe 41.6521267274 4.2894221207 38.7682548634
Fe 43.1077768709 2.9031719478 37.3062176479
Fe 44.4847766334 4.2563454461 38.7648706108
Fe 45.9469122177 2.9040613154 37.2978596617
Fe 47.3249547792 4.3395853132 38.7317766744
Fe 48.8280617832 2.8647323729 37.2694977075
Fe 50.2697646497 4.2599657292 38.7370028911
Fe 51.6455357324 2.9199189506 37.3384529593
Fe 53.1095643983 4.30391585 38.7243540291
Fe 54.5210473011 2.872433882 37.3004442213
Fe 56.0172102747 4.3507116573 38.7265156516
Fe 57.3731654174 5.7098807976 37.3477576306
Fe 1.4207678013 7.1179227137 38.7968323867
Fe 2.853186538 5.6863278729 37.308520584
Fe 4.3353800739 7.2293292455 38.7377139204
Fe 5.7346084388 5.7871933671 37.3383093497
Fe 7.1959273556 7.1963173869 38.693740898
Fe 8.6604041577 5.7640085089 37.3349193963
Fe 10.0740498544 7.1249949734 38.7528304691
Fe 11.4256891762 5.7043453256 37.3491160176
Fe 12.9527757403 7.1877479148 38.7949747208
Fe 14.4045456871 5.7685947547 37.2744556706
Fe 15.8219889755 7.228211931 38.7287315855
Fe 17.1643550028 5.6911885288 37.2661416572
Fe 18.648306797 7.1995257803 38.7013668244
Fe 20.0508672812 5.6861913818 37.3365350607
Fe 21.4693228565 7.1411814914 38.771634175
Fe 22.9906280842 5.7359446927 37.2851256358
Fe 24.4033821846 7.1847648097 38.7612075291
Fe 25.8190871137 5.7227140814 37.2757615556
Fe 27.2790291448 7.1277228041 38.7172213575
Fe 28.6748261411 5.6832332052 37.296205786
Fe 30.0784596997 7.2035650307 38.7265161241
Fe 31.5227800385 5.7158017853 37.3460045924
Fe 32.9498538136 7.1317569144 38.7673136696
Fe 34.4715373284 5.7834370218 37.333288352
Fe 35.8441245892 7.2192577519 38.7980786064
Fe 37.2606242726 5.772275015 37.270363215
Fe 38.7767902437 7.1335891947 38.7684467162
Fe 40.1800439233 5.7538199557 37.3584420859
Fe 41.6453846475 7.2279175687 38.6974608648
Fe 43.0132850165 5.7781996199 37.3021690444
Fe 44.4732041551 7.1889351919 38.7271493588
Fe 45.9664264731 5.6900580241 37.3450238817
Fe 47.3954357582 7.2184120838 38.7022139585
Fe 48.8002453425 5.7587934799 37.2638508941
Fe 50.2638352356 7.2093545601 38.7142872649
Fe 51.7143382557 5.7727710777 37.2917967427
Fe 53.1147107943 7.1754112912 38.7345606331
Fe 54.480649221 5.6867622892 37.3475821881
Fe 55.93603712 7.1433647685 38.7667431132
Fe 0.0022574115 8.6051826518 37.3038415676
Fe 1.4312181777 10.062720825 38.8022439657
Fe 2.8427957202 8.6082114166 37.3623760422
Fe 4.2742434802 10.0041174448 38.7735175267
Fe 5.7544504792 8.5758051268 37.2794620974
Fe 7.1918779507 9.9925849395 38.7063236002
Fe 8.5886281476 8.573370854 37.3080643425
Fe 10.0251252615 10.0824408378 38.7783239739
Fe 11.461303705 8.6334524637 37.3359841411
Fe 12.8834151668 10.0869571653 38.7120142244
Fe 14.3137734308 8.6570694804 37.3417108539
Fe 15.786214158 9.991890824 38.7007306749
Fe 17.23162407 8.628636976 37.291582562
Fe 18.6096671568 10.0627203294 38.7463219348
Fe 20.0621492435 8.5908255088 37.3349819126
Fe 21.5008948075 10.0437800168 38.7405162614
Fe 22.9454885527 8.6519881512 37.3593814192
Fe 24.4133033534 10.0603417853 38.691793232
Fe 25.8373472998 8.660016478 37.2747549335
Fe 27.273342323 10.0217024845 38.7692407312
Fe 28.6696245588 8.637089278 37.2858401003
Fe 30.119947075 10.0518422197 38.7949757181
Fe 31.5930639382 8.5692872201 37.3610031873
Fe 32.9831944228 9.9949304354 38.7772792873
Fe 34.4319386951 8.5938287799 37.2620039948
Fe 35.8382306417 10.0948746977 38.6955047564
Fe 37.3110704901 8.657289523 37.3404518211
Fe 38.7347362692 10.0892477254 38.7932189485
Fe 40.1991596201 8.6339451497 37.3426211526
Fe 41.6690514926 10.0503421533 38.7205401676
Fe 43.0589420986 8.6094497619 37.2634800162
Fe 44.5128913153 10.0946958198 38.7630178047
Fe 45.8936479046 8.5588692676 37.3491353969
Fe 47.3157202132 10.0610346489 38.7323472357
Fe 48.7862361309 8.6674878906 37.2596094113
Fe 50.2106245997 10.0001397194 38.7614795614
Fe 51.6312175312 8.6257404509 37.2717174382
Fe 53.1312944023 10.0916311233 38.7468642352
Fe 54.4795098325 8.5885450343 37.2615002988
Fe 55.983449518 10.0860775133 38.7060669116
Fe 57.3611560409 11.4354903568 37.344928335
Fe 1.3888896672 12.8822467806 38.7264078773
Fe 2.8256147741 11.4459294136 37.3400670835
Fe 4.3029355464 12.9555362791 38.7095458791
Fe 5.7731937999 11.4823478082 37.3662313128
Fe 7.2305826778 12.9194941804 38.772195258
Fe 8.6119294596 11.4908741511 37.3087796601
Fe 10.0773094966 12.8981524429 38.7613363324
Fe 11.4347002474 11.521748908 37.2534261557
Fe 12.9265486448 12.9568843162 38.7072474331
Fe 14.324308387 11.5204270268 37.2564614968
Fe 15.7500380037 12.9387509316 38.7239617893
Fe 17.2086191422 11.4834517102 37.272957397
Fe 18.7099056548 12.9410174816 38.7517584081
Fe 20.1420862499 11.5341450659 37.316947901
Fe 21.5508568743 12.9470318431 38.7073257848
Fe 23.0082277507 11.5207389749 37.3335827452
Fe 24.3643710984 12.8703086305 38.7489638413
Fe 25.7736149506 11.4333552645 37.2928077439
Fe 27.2819917377 12.9352324663 38.7119792303
Fe 28.6650456562 11.4691576579 37.322057979
Fe 30.1647630899 12.8626528346 38.7831410876
Fe 31.5631167475 11.4405546873 37.2744292473
Fe 32.9672905281 12.8577370609 38.7546088358
Fe 34.4267258986 11.4551510453 37.2679121852
Fe 35.8828982477 12.9163395226 38.7742003442
Fe 37.3343543843 11.516927168 37.2712037696
Fe 38.6907786031 12.9154854971 38.7098473604
Fe 40.1884029757 11.5317507586 37.2696275558
Fe 41.6485666451 12.9091601822 38.7495811387
Fe 43.0558236948 11.4297557165 37.3317176931
Fe 44.4578670526 12.8961372162 38.7781557714
Fe 45.909856439 11.4525595357 37.3428791246
Fe 47.3518989679 12.8818237666 38.7994015481
Fe 48.7371360418 11.4253392836 37.316351006
Fe 50.1786181626 12.921334802 38.798737787
Fe 51.6899798295 11.4761969461 37.3638468025
Fe 53.118531218 12.9258182517 38.6993406947
Fe 54.5346142156 11.448260068 37.2902737285
Fe 55.9796559063 12.8780787015 38.7282719718
Fe 0.0435392683 14.3448216922 37.3580212758
Fe 1.4736629142 15.7997742912 38.6909114272
Fe 2.894341072 14.3992195534 37.3324912036
Fe 4.3209755134 15.8263339429 38.7307113473
Fe 5.7903435809 14.3129584547 37.3407728559
Fe 7.162497293 15.7684534143 38.7113626825
Fe 8.5692506325 14.3432632019 37.3596236891
Fe 10.0545187128 15.7446776893 38.70375837
Fe 11.4523952793 14.3935759391 37.3618179135
Fe 12.8696158934 15.7282525529 38.7029492236
Fe 14.397050509 14.3785678976 37.2541417881
Fe 15.8037828928 15.8107111324 38.7343166681
Fe 17.1701312874 14.3348275098 37.2940990222
Fe 18.710900536 15.7353091561 38.7595522261
Fe 20.1036785783 14.3142599173 37.2693581575
Fe 21.5185148772 15.7604023266 38.7960091746
Fe 22.9797715152 14.3590713373 37.3526129841
Fe 24.3761512849 15.7472503037 38.7040747408
Fe 25.818777603 14.3029431075 37.3501365937
Fe 27.2267623492 15.7874650961 38.7966345983
Fe 28.6551951759 14.2999918904 37.3109609606
Fe 30.1738449453 15.8160064532 38.7463653091
Fe 31.5159885829 14.3901956109 37.2998750346
Fe 33.0527315382 15.7820731401 38.778120868
Fe 34.4002911005 14.4034499049 37.3311300408
Fe 35.8566230099 15.7600246494 38.8024711894
Fe 37.2832936135 14.3383682367 37.3466869388
Fe 38.7977993098 15.8313380383 38.707349485
Fe 40.1859093293 14.3919066918 37.3090679173
Fe 41.6715707406 15.7381200138 38.7907007573
Fe 43.0977853556 14.3881111854 37.2972540123
Fe 44.4385860593 15.7858009092 38.7072084778
Fe 45.9601328123 14.3521752982 37.2553518902
Fe 47.4013019125 15.8131635719 38.7883977187
Fe 48.8401364186 14.3975288758 37.3253907193
Fe 50.1739214147 15.8241811094 38.7738346026
Fe 51.6107410507 14.2974021855 37.3613992425
Fe 53.087151955 15.8397212944 38.75663531
Fe 54.4763863345 14.315021148 37.3532953229
Fe 55.9603368067 15.8245489568 38.763754614
Fe 0.0335916644 17.1742041247 37.3094354408
Fe 1.3870283046 18.6912075688 38.7883695857
Fe 2.9097567221 17.2569969407 37.3009521982
Fe 4.272096808 18.7080612712 38.7093804541
Fe 5.7475767197 17.2764607483 37.2808081874
Fe 7.2293649817 18.6479419186 38.714270919
Fe 8.6154909307 17.2722156676 37.3057254866
Fe 10.0393102439 18.6533248794 38.7649340301
Fe 11.4767466811 17.2202234116 37.3116934259
Fe 12.8784479406 18.6355203296 38.7020615627
Fe 14.3238353155 17.2624106101 37.3548525993
Fe 15.7822891798 18.6311867898 38.7729166635
Fe 17.2535266251 17.2589105612 37.2769770572
Fe 18.6407163953 18.6370623567 38.7985718175
Fe 20.0438320963 17.1637779345 37.2728348609
Fe 21.526448925 18.6510308427 38.8020669349
Fe 22.998001188 17.2174419016 37.2963453086
Fe 24.3376745133 18.6858687492 38.6988355395
Fe 25.886994263 17.1778848695 37.3411142641
Fe 27.2170376706 18.6197153153 38.7505868766
Fe 28.741334959 17.1948045906 37.3462408038
Fe 30.125136525 18.6539622262 38.7689389974
Fe 31.5161025523 17.2246698675 37.3264520747
Fe 32.9959924648 18.6105669819 38.7228786052
Fe 34.4554942422 17.1637909505 37.2999716392
Fe 35.8470791435 18.674027673 38.7677056482
Fe 37.2613283914 17.2262145501 37.3408404733
Fe 38.7658513492 18.6174367136 38.7202657693
Fe 40.2211207442 17.2700039538 37.3579202093
Fe 41.6564091919 18.7008169115 38.7440786414
Fe 43.0332369702 17.2051895238 37.2558922087
Fe 44.5398449229 18.6815101649 38.7694281822
Fe 45.9229727787 17.2630541453 37.2539331649
Fe 47.3537604577 18.7005943843 38.7077567933
Fe 48.8016648666 17.2359225729 37.2580437466
Fe 50.2681391323 18.7105632752 38.7464144826
Fe 51.6408218466 17.2716066786 37.3447907774
Fe 53.0807204676 18.6863595224 38.7871552218
Fe 54.521097384 17.2548578603 37.2637257031
Fe 55.9214493414 18.6955910224 38.697343971
Fe 57.3627651128 20.0806552972 37.2934428985
Fe 1.4038602422 21.5701057252 38.7764222304
Fe 2.8690088097 20.0502147169 37.2852418164
Fe 4.263899865 21.5595920899 38.7095199075
Fe 5.7114578646 20.0782868075 37.3458210029
Fe 7.1555240999 21.5113108121 38.7575625742
Fe 8.6107271196 20.1188869154 37.3210049846
Fe 10.097759236 21.5067528431 38.7704177599
Fe 11.531335317 20.1391090598 37.3140879239
Fe 12.9494626566 21.5035798975 38.7632765472
Fe 14.3990254159 20.1246355705 37.3312293359
Fe 15.7295553062 21.4913465354 38.7147998984
Fe 17.2299694024 20.0347572041 37.3269477732
Fe 18.6134460454 21.5182274858 38.7595437633
Fe 20.0406939859 20.038655176 37.2706097442
Fe 21.5177323871 21.4762762129 38.7544457871
Fe 23.0145995186 20.0581972284 37.320099942
Fe 24.4006862225 21.4892299016 38.7762939728
Fe 25.8045308664 20.129238897 37.2918991053
Fe 27.2871155674 21.4903553275 38.7501514985
Fe 28.7273116412 20.142209418 37.3289376567
Fe 30.0937035017 21.5298921373 38.7887082155
Fe 31.5933851412 20.0800163522 37.3062034323
Fe 33.0028036534 21.4913875319 38.6903576964
Fe 34.4110570611 20.0498203698 37.3551188903
Fe 35.8520196921 21.5719212434 38.7647771192
Fe 37.3566619193 20.0900244943 37.3513229103
Fe 38.74152279 21.4980975704 38.7307304748
Fe 40.1393932439 20.1466926547 37.2636916334
Fe 41.5835100886 21.580790659 38.6991626237
Fe 42.9963335352 20.1286530965 37.2882824219
Fe 44.4550763669 21.5627793467 38.7655967482
Fe 45.8668079788 20.0907240792 37.2612751805
Fe 47.3241148808 21.5694350034 38.7482090297
Fe 48.773097761 20.0669369702 37.3021746847
Fe 50.1852175653 21.5544850135 38.7634892226
Fe 51.6752167483 20.1462793131 37.3431110707
Fe 53.0661904743 21.507612349 38.7882357085
Fe 54.4810567889 20.1458334903 37.2874885953
Fe 55.9832342428 21.5180089533 38.7857260235
Fe 57.3496944497 22.9486301227 37.3049958812
Fe 1.4889464758 24.3417036266 38.8007199187
Fe 2.8526316915 22.9668726382 37.3025757513
Fe 4.3418462401 24.4483440742 38.7967322278
Fe 5.7361869734 22.9498018938 37.299589657
Fe 7.2140467119 24.3610220626 38.7923244278
Fe 8.5927607798 23.0072442471 37.2636475046
Fe 10.1013073125 24.3879028036 38.718804107
Fe 11.4427756055 22.9116618571 37.3612573537
Fe 12.9728023121 24.4409717607 38.7075154712
Fe 14.3929563151 22.9168754264 37.3032979706
Fe 15.7885602998 24.3903569513 38.7675941957
Fe 17.2361337768 23.0031929463 37.3430933052
Fe 18.5988510374 24.3590199557 38.697988452
Fe 20.0741882813 23.0060838918 37.3570044945
Fe 21.5601553462 24.4054112884 38.7814952083
Fe 23.0035980467 23.012854167 37.269672431
Fe 24.3418408886 24.3805197895 38.7356623932
Fe 25.777444898 23.0016258697 37.3424739676
Fe 27.2294890188 24.3705659496 38.7180318679
Fe 28.6441056105 23.0135124322 37.3280527806
Fe 30.0993115799 24.3602924563 38.7864298052
Fe 31.5975203598 22.9849149345 37.3330600554
Fe 32.9540500057 24.3374709498 38.7457522098
Fe 34.4788141366 22.943087461 37.2746877901
Fe 35.8272543277 24.3879641776 38.7760971075
Fe 37.3523621665 22.9973598529 37.273004894
Fe 38.7425433173 24.3810183786 38.7043610561
Fe 40.1278400653 22.9259013285 37.2933890415
Fe 41.6532818492 24.3976806692 38.7655278906
Fe 43.0396588567 22.9276320691 37.2927000748
Fe 44.5032933783 24.4322772477 38.7987717117
Fe 45.8803447231 22.9846578616 37.3552607098
Fe 47.391784416 24.3577507498 38.7382151905
Fe 48.79747155 22.9983736466 37.2698902503
Fe 50.2531876001 24.4226103803 38.7396133428
Fe 51.6933116488 22.9305596193 37.3071281498
Fe 53.0576180272 24.4217059242 38.7255126355
Fe 54.5384885281 22.9643368786 37.3000474516
Fe 56.0035333903 24.3903062463 38.7157442019
Fe 57.3995730326 25.8397294937 37.3109868354
Fe 1.3873047023 27.2648362208 38.7122399022
Fe 2.8752922545 25.8794787238 37.3624153156
Fe 4.3290354629 27.2447141173 38.7038387632
Fe 5.7443444181 25.8198181232 37.3112793046
Fe 7.1436727445 27.3104939274 38.7621534553
Fe 8.5803975497 25.8259180737 37.3359327531
Fe 10.0725443473 27.2413947084 38.7443596552
Fe 11.4867147697 25.8172263733 37.3141847779
Fe 12.8851089867 27.30605536 38.7280710742
Fe 14.3774520659 25.8368031648 37.2533084847
Fe 15.7342531295 27.2367245419 38.7652732583
Fe 17.2074031443 25.7976691062 37.2617625647
Fe 18.6457762304 27.2596146022 38.7504016764
Fe 20.0992016105 25.865938211 37.3164418196
Fe 21.5402544414 27.247102738 38.6969494482
Fe 22.9999070251 25.8590262027 37.3380509348
Fe 24.3635778379 27.2551592899 38.7851371362
Fe 25.8037796697 25.8813676477 37.3526932887
Fe 27.2255175099 27.2363883845 38.7333701192
Fe 28.7467616371 25.8680831574 37.2942044726
Fe 30.1506657292 27.3129262524 38.7155009484
Fe 31.5167064317 25.8104790295 37.3057770566
Fe 33.0358172127 27.2152291552 38.7647525947
Fe 34.3867736454 25.8626053604 37.2673469303
Fe 35.8433160278 27.2803574817 38.7005792706
Fe 37.3641084095 25.7783722897 37.3083485733
Fe 38.7044554209 27.3171729593 38.7381294937
Fe 40.2244882812 25.8148270232 37.2787047889
Fe 41.5917237682 27.2266779727 38.691465812
Fe 43.0430354448 25.8284696402 37.3411619679
Fe 44.4636794623 27.2544741571 38.7674296721
Fe 45.9321454691 25.8208374071 37.2896334017
Fe 47.318605555 27.3063364914 38.7836795275
Fe 48.7445054274 25.786970766 37.2594123375
Fe 50.2075475243 27.3061900051 38.6914569544
Fe 51.709342648 25.8605680747 37.2916401565
Fe 53.1254065228 27.3001689157 38.7726120766
Fe 54.5259179297 25.864431863 37.2684546231
Fe 55.978885017 27.2718299049 38.6937819163
Fe 0.0032566081 28.6456914023 37.32321493
Fe 1.4477413835 30.1581855503 38.7062715879
Fe 2.9150805229 28.7195134446 37.2702448711
Fe 4.3608575695 30.1256196523 38.7756771549
Fe 5.7086183063 28.7109387964 37.301279256
Fe 7.2159700343 30.1478693782 38.718037267
Fe 8.6328676931 28.732677808 37.2817290946
Fe 10.0273669801 30.0936450044 38.7191012079
Fe 11.4973613073 28.7073524738 37.3112247883
Fe 12.9550840447 30.0942221601 38.7535779851
Fe 14.3514970845 28.6489270785 37.328115364
Fe 15.7426918138 30.1148714982 38.7471832194
Fe 17.2069784386 28.6620615138 37.3203953369
Fe 18.6178714489 30.1513163271 38.7924219464
Fe 20.0799329055 28.6753862963 37.3259190692
Fe 21.4836135499 30.1714047465 38.8015331617
Fe 22.9931923409 28.6551732936 37.2886100747
Fe 24.4190915288 30.1308096827 38.7077400246
Fe 25.8251545903 28.6889409683 37.2594489657
Fe 27.2851636059 30.1167844884 38.7843042357
Fe 28.7400985257 28.6812059816 37.3010737429
Fe 30.1689422753 30.1438924907 38.7719665955
Fe 31.5128261453 28.7135521819 37.3159504583
Fe 33.0384210287 30.1328279524 38.7573317962
Fe 34.4543295203 28.6624978691 37.2564231749
Fe 35.9007611273 30.1441440355 38.7966137807
Fe 37.3410547001 28.6667374241 37.3166852373
Fe 38.6907953958 30.0823212894 38.7527870221
Fe 40.1905471371 28.6799847291 37.3587735433
Fe 41.569890376 30.1054105163 38.7471189203
Fe 43.0987332173 28.65654891 37.363591526
Fe 44.532296081 30.0910674648 38.7245564058
Fe 45.868345799 28.7455429418 37.3000565528
Fe 47.3070669886 30.1444257715 38.779769504
Fe 48.7957583086 28.6955003541 37.3611126395
Fe 50.2794261875 30.1645497898 38.6876936467
Fe 51.686984973 28.6642583342 37.344224531
Fe 53.0661221366 30.1349720967 38.7435864711
Fe 54.5152281322 28.6905037251 37.2898434495
Fe 55.9220754398 30.0814076195 38.7917385225
Fe 0.0277433157 31.5764413607 37.3062153254
Fe 1.4607934144 33.0386806339 38.735081535
Fe 2.8535652707 31.6275941779 37.2830266729
Fe 4.317744984 32.9764536394 38.7634582367
Fe 5.7975215766 31.5907313269 37.36598168
Fe 7.2147934058 32.948365214 38.7714201075
Fe 8.5525572642 31.5694630925 37.2693158634
Fe 10.00755397 32.9912509432 38.7023370035
Fe 11.4974056557 31.5507978966 37.3010035803
Fe 12.9682496978 33.0127585258 38.7505120438
Fe 14.3929003395 31.5989402547 37.3606591517
Fe 15.8368869896 33.0428321743 38.7764994683
Fe 17.2337913684 31.547220695 37.2895242111
Fe 18.6318515834 32.9972214008 38.7291130689
Fe 20.1155471669 31.5495820276 37.3561566516
Fe 21.5456754238 32.9512908198 38.7738006573
Fe 22.9593052169 31.6175122356 37.3598057145
Fe 24.4030961956 32.9895380307 38.7824965199
Fe 25.8085865058 31.516985454 37.257090608
Fe 27.2939406392 33.0550802059 38.7664548089
Fe 28.664264765 31.6070251955 37.3165343317
Fe 30.1226768784 33.0379588375 38.6948949528
Fe 31.6128445189 31.5863507906 37.2704177709
Fe 33.0210418093 32.9986141624 38.7440367688
Fe 34.4937486557 31.5157508179 37.3524860994
Fe 35.8405441598 32.9685131502 38.7948554043
Fe 37.3069888534 31.5906105486 37.3063913568
Fe 38.8025383291 33.053890363 38.7293903287
Fe 40.1357617723 31.5413033757 37.286752636
Fe 41.6397686718 32.9691774855 38.7129478854
Fe 43.0960914053 31.6080938924 37.2697114768
Fe 44.4960097676 33.0402400075 38.801258241
Fe 45.8782894501 31.6026258477 37.2530526971
Fe 47.3230380541 33.0095346461 38.6948239467
Fe 48.8024427003 31.5490021796 37.2624770387
Fe 50.2591815883 32.9738207606 38.777596851
Fe 51.7099248297 31.5136768625 37.3137389676
Fe 53.0430396829 33.0132603079 38.702046431
Fe 54.5406377761 31.5167435449 37.2590913196
Fe 55.9111393027 33.0244022934 38.7905771637
Fe 0.0479795185 34.388315684 37.3335273541
Fe 1.4123483503 35.8411940991 38.7681947733
Fe 2.8148921186 34.4184070737 37.2642552568
Fe 4.3004372329 35.8368263307 38.7262260716
Fe 5.7610775228 34.3977895494 37.2728418866
Fe 7.2228868977 35.9316714263 38.7532233899
Fe 8.5948061394 34.4437778099 37.271642359
Fe 10.0217470006 35.9065153144 38.75566833
Fe 11.5304869799 34.4561998741 37.36278859
Fe 12.8877120434 35.8229985441 38.6985103363
Fe 14.3419877884 34.4371580376 37.3560910835
Fe 15.7917804669 35.9019464708 38.7906968411
Fe 17.1714038121 34.4853562059 37.3665183027
Fe 18.7026061526 35.9160166118 38.7819584024
Fe 20.0994369427 34.4437815313 37.2861445973
Fe 21.5082691101 35.8387853517 38.7794135398
Fe 22.9571271751 34.4539527974 37.3228036159
Fe 24.3614861383 35.9206013345 38.7333473047
Fe 25.8077244027 34.4365164648 37.3587596312
Fe 27.2815370723 35.8647892777 38.695364141
Fe 28.747558412 34.4141487964 37.3656201622
Fe 30.0790472476 35.9325821797 38.7025046818
Fe 31.6117315907 34.3850165416 37.2603781945
Fe 32.980161959 35.9089619591 38.7997797866
Fe 34.436867441 34.42189612 37.2719695467
Fe 35.8528270803 35.8238200728 38.740240988
Fe 37.3234038229 34.4959152856 37.3003024787
Fe 38.7973011301 35.8868343448 38.7398282869
Fe 40.1261746942 34.4927825581 37.3535148419
Fe 41.6111106021 35.8980007627 38.7151661929
Fe 43.0997031753 34.3880470659 37.3210141702
Fe 44.4398807823 35.8469191443 38.7402129145
Fe 45.919864997 34.3998688847 37.3417233367
Fe 47.407401927 35.86376101 38.7998056957
Fe 48.7543347171 34.4453671131 37.3023720268
Fe 50.247894423 35.9177238926 38.7257883846
Fe 51.6802471344 34.4492746428 37.3048953149
Fe 53.1135355904 35.8641533006 38.7829352633
Fe 54.5310209022 34.4629255103 37.2545561553
Fe 55.9947824176 35.8808142192 38.7511878831
Fe 0.0506253333 37.3645355818 37.3358942451
Fe 1.415654887 38.7821749359 38.7737555763
Fe 2.9203223962 37.2582916326 37.3224473162
Fe 4.3517920854 38.8007118896 38.7221475423
Fe 5.7355655756 37.2764734747 37.2530247457
Fe 7.219962962 38.6967639081 38.7665708693
Fe 8.6369091576 37.320693261 37.362307124
Fe 10.0522372826 38.7551785647 38.695996566
Fe 11.5188667559 37.3619133543 37.2530027184
Fe 12.9308277134 38.7095033889 38.7619630642
Fe 14.3290595126 37.3518722565 37.3591887911
Fe 15.8404082913 38.7141077627 38.7162856356
Fe 17.1660426389 37.3675319685 37.3357887774
Fe 18.6020317405 38.7926533763 38.8009432322
Fe 20.0946066454 37.3629214241 37.3266736649
Fe 21.5408430863 38.7281553003 38.7453663175
Fe 22.9977015661 37.3276892641 37.3062973247
Fe 24.4109473781 38.7718503962 38.7591601774
Fe 25.8547923973 37.3488118344 37.2870156481
Fe 27.3149757773 38.7114997729 38.7205291749
Fe 28.7210992547 37.2742242032 37.3235249624
Fe 30.0841702989 38.7708818001 38.7825593282
Fe 31.6245777693 37.3423695398 37.3113429375
Fe 32.9781383499 38.7599187358 38.7353476788
Fe 34.4588016944 37.3586548002 37.3168276049
Fe 35.9116268439 38.7082658499 38.7022402792
Fe 37.2574907154 37.320362212 37.3011767607
Fe 38.7981184958 38.7159906646 38.7167083288
Fe 40.170116817 37.3078265055 37.3534206682
Fe 41.6675648492 38.688962866 38.6906839196
Fe 43.0784439123 37.330139937 37.2931041648
Fe 44.4894798336 38.7342874939 38.7298962919
Fe 45.9276337201 37.3172502933 37.3490653399
Fe 47.4114509883 38.7929876122 38.7834862781
Fe 48.8469461773 37.3228087135 37.3204035523
Fe 50.2232339698 38.7413593016 38.7177866004
Fe 51.6886286473 37.2767595288 37.3333633072
Fe 53.0503633082 38.7325247273 38.7113060388
Fe 54.4914853587 37.3328716557 37.3371925846
Fe 55.9698756086 38.7512675904 38.7473932985
Fe 57.386399055 40.2170072469 37.3402160321
Fe 1.393790986 41.6209140001 38.775570151
Fe 2.8250069716 40.1610293416 37.2775612982
Fe 4.3043399527 41.6290007368 38.7361960767
Fe 5.6841659304 40.209398824 37.2784223678
Fe 7.1212030759 41.5747266397 38.7813815603
Fe 8.5566780573 40.175478044 37.2629369327
Fe 9.9968910264 41.6557980751 38.7552334242
Fe 11.501622782 40.2166550105 37.3234700737
Fe 12.963557233 41.5853204359 38.7785511981
Fe 14.2955560264 40.1377889656 37.2890801142
Fe 15.7311532547 41.6181534463 38.7864051112
Fe 17.2555715387 40.227607576 37.2892340692
Fe 18.6263649903 41.5847556167 38.6881371958
Fe 20.0372510729 40.1438468069 37.2567143916
Fe 21.507947441 41.644060204 38.7239965354
Fe 22.9117965589 40.1521694444 37.3006074097
Fe 24.4233084292 41.6647028017 38.7338790052
Fe 25.7751031164 40.2004123033 37.2983458794
Fe 27.2733109893 41.6448273216 38.7179736645
Fe 28.7034036743 40.2228526255 37.3336172159
Fe 30.1136615364 41.6114125473 38.7158872361
Fe 31.5227251511 40.2375603655 37.2928105592
Fe 33.0150243514 41.6151651991 38.7420740481
Fe 34.476517136 40.1861321501 37.2887669783
Fe 35.8208779847 41.6004903183 38.7220158252
Fe 37.3287621963 40.2319149232 37.3643902928
Fe 38.7434323295 41.6103481151 38.7379777302
Fe 40.1780384566 40.1708201967 37.3214163826
Fe 41.6477417014 41.6165281034 38.7748180049
Fe 43.067620978 40.1833600086 37.321049864
Fe 44.5398482153 41.6197879067 38.7462771035
Fe 45.9689278552 40.195966791 37.3373017179
Fe 47.3487755126 41.613247177 38.7913262735
Fe 48.8476764122 40.2308702726 37.3011745869
Fe 50.1827689299 41.5629117717 38.7105486754
Fe 51.6083618721 40.1782946346 37.2555863261
Fe 53.1059022379 41.5680800013 38.7524249782
Fe 54.5344363968 40.182894693 37.2985925998
Fe 55.9465329363 41.6478220818 38.707522516
Fe 57.3833544075 43.0663055921 37.3609963247
Fe 1.4697666734 44.5193728878 38.7255473136
Fe 2.8401402878 43.061019096 37.3624674598
Fe 4.3391268462 44.4341155914 38.7961297754
Fe 5.7400486492 43.0934232438 37.3152911574
Fe 7.134197882 44.5095006714 38.7984528946
Fe 8.6366404953 43.0292894315 37.2704006633
Fe 10.0305364881 44.5066981991 38.7388438829
Fe 11.4593438598 43.102446591 37.2805294759
Fe 12.9269434433 44.4538785304 38.6933691391
Fe 14.378361015 42.9984873866 37.3453823895
Fe 15.8175959245 44.4485668865 38.7294872757
Fe 17.2359901704 42.9991880824 37.3075335196
Fe 18.6427863498 44.4852016428 38.7678162492
Fe 20.0908416142 43.0676668166 37.2919989466
Fe 21.5391969687 44.4973255007 38.7118304915
Fe 22.9157304867 43.0861619821 37.3018091196
Fe 24.4369892258 44.4894282213 38.8018101127
Fe 25.8060348276 43.0414148957 37.2661530247
Fe 27.2407097689 44.5374552668 38.7589749072
Fe 28.7149437481 43.0097089584 37.3573125231
Fe 30.0807697841 44.5024292436 38.7896708621
Fe 31.6266870091 43.0195425249 37.3166572766
Fe 33.0044348597 44.4374467185 38.7101768905
Fe 34.4173170327 43.0702456937 37.2943357938
Fe 35.8846432236 44.4499920899 38.7763959735
Fe 37.298321769 43.0567684621 37.3514884542
Fe 38.7512666455 44.4532472578 38.7787768553
Fe 40.1660375003 43.1025415003 37.254634344
Fe 41.6722977431 44.4636347143 38.7200095154
Fe 43.0639197833 43.0259056409 37.2848212673
Fe 44.4397661178 44.428775374 38.7999010478
Fe 45.9005658657 43.0116745682 37.3095646986
Fe 47.3413146219 44.5122053532 38.7274665938
Fe 48.8004104444 42.9925422417 37.3190483841
Fe 50.2503209037 44.5343910135 38.7707611114
Fe 51.616986229 43.0641194968 37.3234453134
Fe 53.0982462209 44.4862588774 38.730326617
Fe 54.4832105358 43.0622406001 37.262387637
Fe 55.9202955439 44.4932293986 38.7140635416
Fe 57.3660743152 45.9634576307 37.3638562342
Fe 1.4109535849 47.3160109953 38.6928823207
Fe 2.8981924881 45.8703920598 37.3550443905
Fe 4.3349613375 47.3712179573 38.7382685427
Fe 5.7422513304 45.9202810684 37.2746228421
Fe 7.1516869867 47.3707363161 38.7297959963
Fe 8.6101321925 45.8683971145 37.3229332505
Fe 10.0700513754 47.3202538173 38.7757991812
Fe 11.505403524 45.9034597927 37.3215252716
Fe 12.9681586277 47.3762986057 38.695485747
Fe 14.3862505979 45.9130150994 37.3076787429
Fe 15.8099085901 47.3711055231 38.7451071859
Fe 17.2333281445 45.958029977 37.2990441627
Fe 18.6059679292 47.3258623204 38.7456065306
Fe 20.0354358759 45.8902336127 37.3284031832
Fe 21.5606488991 47.3698201055 38.7885916165
Fe 22.9329492419 45.8808295576 37.3101597506
Fe 24.3400623919 47.3622253713 38.7158009374
Fe 25.8454346901 45.9329230326 37.3389430957
Fe 27.2944051915 47.3453875413 38.7988144686
Fe 28.7030350621 45.9288959794 37.257476025
Fe 30.0980367405 47.3051327352 38.7808316412
Fe 31.6268827983 45.8822926053 37.295769204
Fe 33.0190954346 47.3489940217 38.7680026867
Fe 34.3934299555 45.8985134304 37.3336359318
Fe 35.833373797 47.324848783 38.7643681629
Fe 37.3175461808 45.8673449816 37.3516300221
Fe 38.8027355629 47.3138064353 38.6974476681
Fe 40.213009917 45.9583587261 37.291766285
Fe 41.6423126126 47.3354264943 38.7979535031
Fe 43.0876112128 45.9121707583 37.2628839595
Fe 44.5205042691 47.3803312009 38.7524565691
Fe 45.9614852995 45.9621503425 37.3500146752
Fe 47.3665110544 47.3159619227 38.7461522458
Fe 48.8424210012 45.9505105434 37.3359582853
Fe 50.2321378795 47.3352807838 38.6902676102
Fe 51.7014913713 45.9303226457 37.3510931605
Fe 53.1026499787 47.3323475554 38.7281110956
Fe 54.5841537009 45.8808077479 37.3521197562
Fe 55.9128567837 47.3577486219 38.7664660442
Fe 57.3566079019 48.7764888854 37.3230895192
Fe 1.4023300436 50.1909819368 38.7995685442
Fe 2.8664614661 48.7340292124 37.3512319526
Fe 4.3066499042 50.2619110723 38.6920727382
Fe 5.797321621 48.8110012662 37.3242473694
Fe 7.1627596269 50.1883493198 38.6985562361
Fe 8.6447134287 48.7928148224 37.2921834289
Fe 10.0539223355 50.2340400025 38.6933684703
Fe 11.4375043362 48.8052603655 37.3092434069
Fe 12.9537206244 50.1946895876 38.76367117
Fe 14.3863629135 48.7650547297 37.2582052601
Fe 15.7794508081 50.2387011869 38.7464950642
Fe 17.1777325481 48.7744050326 37.3228673323
Fe 18.6647844432 50.173277734 38.7154574589
Fe 20.0890887251 48.761403751 37.3416962836
Fe 21.5445832812 50.2719760571 38.7711652345
Fe 22.9632518693 48.8138287173 37.3661605711
Fe 24.4432091705 50.252776518 38.7908848498
Fe 25.7855020832 48.8246334189 37.2666780712
Fe 27.2212012809 50.249827085 38.7349008738
Fe 28.7235579379 48.7468035794 37.3433290518
Fe 30.1103377534 50.273413734 38.7198265206
Fe 31.521172039 48.8320985988 37.3542965497
Fe 32.9790001699 50.219142874 38.7048418622
Fe 34.4206270964 48.7779952516 37.3113682009
Fe 35.9269515725 50.2741559703 38.799312142
Fe 37.3127346867 48.7446433719 37.3519464041
Fe 38.739926253 50.1772340583 38.6968968367
Fe 40.1428601106 48.8049615746 37.2563190458
Fe 41.6161317266 50.2658887672 38.7638064302
Fe 43.0259792204 48.779984647 37.3426807466
Fe 44.4850245753 50.1956357667 38.7727290297
Fe 45.9574466512 48.7768608267 37.2973849564
Fe 47.3842482321 50.2712574759 38.764704461
Fe 48.7865716038 48.8125704452 37.2528989915
Fe 50.2193302822 50.2448099113 38.7390748404
Fe 51.6234802671 48.7909611102 37.2717089429
Fe 53.0777534809 50.2176645047 38.8001676581
Fe 54.5245889551 48.7712728808 37.3486603015
Fe 56.0174885795 50.252660774 38.7123918311
Fe 0.0247359137 51.6569753734 37.3443146999
Fe 1.4485584638 53.046633782 38.7411627709
Fe 2.9194136 51.6377097627 37.319752876
Fe 4.3377582344 53.0923009361 38.7126368491
Fe 5.6931607241 51.6370526028 37.3195958427
Fe 7.2056944333 53.1367289463 38.7985528595
Fe 8.6176506282 51.6521641354 37.2689997359
Fe 10.0419105228 53.1154458304 38.7819447525
Fe 11.4372564594 51.6439843256 37.3515111419
Fe 12.8640848879 53.1400724488 38.7180068438
Fe 14.3943523829 51.6898803913 37.2966744484
Fe 15.834557802 53.1413869412 38.791199167
Fe 17.1923450844 51.692094554 37.3320976532
Fe 18.661840019 53.1121648868 38.7878085572
Fe 20.0940168748 51.6744939142 37.2948733214
Fe 21.4944507961 53.0654951905 38.7315976177
Fe 22.9398022972 51.7101579623 37.3316498251
Fe 24.4324517353 53.0420291244 38.7363611564
Fe 25.8415130263 51.6708734168 37.2744525406
Fe 27.2697725382 53.1448367949 38.7506680056
Fe 28.7189042901 51.6168470727 37.26093686
Fe 30.0787908402 53.0767579431 38.7145286749
Fe 31.5462018547 51.6713050569 37.2959283367
Fe 32.9710402585 53.0590022182 38.6926648184
Fe 34.4835777928 51.7077560417 37.2929442256
Fe 35.9162193763 53.119983758 38.7149328339
Fe 37.2979665115 51.6535298035 37.3605698811
Fe 38.7443183088 53.0716303819 38.7234474312
Fe 40.2141921171 51.6368924044 37.2856916131
Fe 41.6689771637 53.1444414167 38.760681281
Fe 43.0988398627 51.7016932389 37.3158839025
Fe 44.4543265989 53.0432932398 38.7620714739
Fe 45.8917901297 51.6561801356 37.3551161457
Fe 47.4105995488 53.1474277587 38.6969902904
Fe 48.7844345077 51.6555413963 37.2783675568
Fe 50.277660154 53.0932802728 38.766300444
Fe 51.6350344236 51.6671964765 37.2754684277
Fe 53.1231762555 53.1068083134 38.7096176393
Fe 54.5733309643 51.6944785106 37.3233627179
Fe 56.0041814417 53.1340036596 38.7959460397
Fe 0.0473533473 54.4808115832 37.3628993592
Fe 1.4316549296 55.9561962977 38.7770735229
Fe 2.8835155296 54.5385961739 37.3646546267
Fe 4.2923934826 55.9780797663 38.7123471307
Fe 5.7422116173 54.4821567012 37.354153677
Fe 7.1404639313 55.9790855217 38.7568047416
Fe 8.5885596485 54.5810250061 37.3049980944
Fe 10.063846047 55.961405171 38.6902568311
Fe 11.5215746568 54.4823074278 37.3064994165
Fe 12.9394131202 55.943003234 38.7189385686
Fe 14.2998052467 54.578588656 37.326817188
Fe 15.7677505616 55.9413261085 38.6872713138
Fe 17.2399156476 54.5159926893 37.2626375567
Fe 18.6216275792 55.9203939736 38.7925322809
Fe 20.0566605644 54.5874031142 37.2641382848
Fe 21.5701585719 55.9715322479 38.7817206529
Fe 22.9257304411 54.482180423 37.3079979833
Fe 24.3500335731 55.987976232 38.7134321733
Fe 25.7878898366 54.5446156397 37.3593543037
Fe 27.2714381121 55.9418719172 38.6991490742
Fe 28.7244912122 54.5442677913 37.3340284133
Fe 30.1425866486 56.0159107693 38.7800268115
Fe 31.590533329 54.5353661859 37.353996853
Fe 33.021285522 55.9850318668 38.6986180168
Fe 34.4076586009 54.545525247 37.3389306059
Fe 35.8672649005 55.9971681691 38.7827377394
Fe 37.3322582185 54.5160591826 37.3090198179
Fe 38.7278584482 56.0135920244 38.7874267615
Fe 40.2059004146 54.4947946878 37.2800637132
Fe 41.6463943105 55.9838830503 38.7789432059
Fe 43.1009336901 54.4863944895 37.3365398422
Fe 44.4308209359 55.9563172383 38.7198625086
Fe 45.9577009942 54.5324202039 37.3208097013
Fe 47.2995014385 55.977227378 38.7243546562
Fe 48.8199363195 54.5192353922 37.3472035618
Fe 50.2807178629 55.950447034 38.7908177123
Fe 51.6811043578 54.5612959514 37.3460629497
Fe 53.0483608891 55.9927655088 38.7756809996
Fe 54.5757962482 54.4914584249 37.2740601794
Fe 55.9953631125 55.9706583669 38.7908602526
Fe 0.0187401602 57.3836897148 40.1470905327
Fe 1.393415313 1.3880459388 41.6582128319
Fe 2.8973864827 0.0540110386 40.1494692301
Fe 4.2844779538 1.3884621726 41.6188964668
Fe 5.7133939257 0.0141835549 40.2321243611
Fe 7.2148142735 1.4381195557 41.5849605382
Fe 8.6000223279 57.3820978813 40.163012588
Fe 10.0689122076 1.4546098776 41.6675906413
Fe 11.5219086838 0.015962864 40.1224751742
Fe 12.9249829609 1.4268502396 41.5855760798
Fe 14.3476115701 0.0103475615 40.134472906
Fe 15.7631409263 1.3845193779 41.6196147296
Fe 17.2427356623 57.3988674924 40.1307067437
Fe 18.602336192 1.3940061151 41.655120579
Fe 20.0338453298 57.3641975741 40.2039978321
Fe 21.5812183739 1.4490719934 41.5642062486
Fe 23.0166519894 57.3578269278 40.1707665432
Fe 24.4517888008 1.4188430326 41.6420557049
Fe 25.7781238695 57.3990104702 40.1707024876
Fe 27.254989046 1.4245449122 41.5776155342
Fe 28.7519658685 57.3989887893 40.2111539108
Fe 30.1722988702 1.3908905579 41.6297341315
Fe 31.6257031328 57.3645811299 40.163162897
Fe 32.9868666005 1.4774000419 41.6385224236
Fe 34.4157381437 57.3730007161 40.1410715565
Fe 35.8918794004 1.4031654895 41.5573309908
Fe 37.3270307713 57.376210489 40.1756256868
Fe 38.6911458753 1.4819119665 41.5995592483
Fe 40.157856339 0.0460595291 40.190062904
Fe 41.6321824626 1.4116107441 41.5688520284
Fe 43.0878646409 0.0230597236 40.1620387838
Fe 44.450384664 1.4480375505 41.5907876729
Fe 45.8665003409 57.3674395749 40.2214890491
Fe 47.3506645977 1.4922196224 41.6049211598
Fe 48.8374455805 57.3895574473 40.1972990038
Fe 50.2001326288 1.4699621269 41.6397390282
Fe 51.7082741763 57.3572261878 40.1347384926
Fe 53.1111038934 1.4288915598 41.6163725723
Fe 54.5152800773 57.393622653 40.2282839481
Fe 55.9529422683 1.457241629 41.5645611239
Fe 57.3569334433 2.9043791053 40.2062961807
Fe 1.4779844427 4.3598289412 41.5856228357
Fe 2.8911381778 2.9068375687 40.1433404853
Fe 4.3487059201 4.2833176186 41.6089743191
Fe 5.7212881496 2.9028486936 40.1795738397
Fe 7.1411982118 4.346292375 41.6549655566
Fe 8.6303893078 2.8615123443 40.1466928145
Fe 10.0942884656 4.3409870458 41.6644373059
Fe 11.4257434515 2.9199544847 40.2252075737
Fe 12.8627778808 4.2667255024 41.6438136682
Fe 14.3912403515 2.8559266704 40.2233314968
Fe 15.7580999521 4.2616307071 41.5880412864
Fe 17.2350844971 2.9001812402 40.209116306
Fe 18.6266640546 4.3388774327 41.5742392744
Fe 20.1103976374 2.8702672041 40.1538338618
Fe 21.5389187875 4.3566832618 41.5782629186
Fe 22.9716401956 2.8558726146 40.2334308667
Fe 24.4499889706 4.3616755714 41.664498789
Fe 25.8079013228 2.8220795604 40.130452001
Fe 27.2406457361 4.3235775684 41.5798483847
Fe 28.7389624443 2.8931386637 40.1609842026
Fe 30.1286219819 4.2631476664 41.5610231701
Fe 31.5750273364 2.836357315 40.1870758655
Fe 33.032913095 4.2814055094 41.6129105078
Fe 34.414190103 2.8803268733 40.1906996366
Fe 35.8601604501 4.270867238 41.5893999394
Fe 37.2979247405 2.8722170026 40.1768308285
Fe 38.7388946445 4.2492933456 41.6576407949
Fe 40.1764465422 2.8792616953 40.2022051974
Fe 41.6630848013 4.2633476628 41.5601161669
Fe 43.0388583171 2.915566494 40.1244549761
Fe 44.4695383549 4.3584832849 41.5673968164
Fe 45.9188257962 2.8338921475 40.1886602369
Fe 47.404950283 4.306517128 41.5967285114
Fe 48.7723819206 2.8928314613 40.1309949628
Fe 50.1779862391 4.2492205435 41.597961667
Fe 51.6575296142 2.8975575182 40.2141416076
Fe 53.0969371406 4.2608439864 41.5620631433
Fe 54.5874510543 2.8957617751 40.213093656
Fe 55.9180834068 4.3492702538 41.6006848437
Fe 57.3895372558 5.7191348229 40.219181282
Fe 1.4874593376 7.1292422363 41.645130515
Fe 2.85293335 5.708972194 40.1864019788
Fe 4.271466191 7.1822660986 41.6639100212
Fe 5.7665826319 5.7196502484 40.2231290655
Fe 7.2286492049 7.1375223231 41.6593908055
Fe 8.6105003288 5.7718560898 40.1831533177
Fe 9.9993211357 7.159453806 41.5838600111
Fe 11.4532152613 5.7714584329 40.1778960832
Fe 12.9035270954 7.2064326072 41.5747095967
Fe 14.296546607 5.7077333888 40.2238642903
Fe 15.8031876822 7.1674476263 41.5801649071
Fe 17.2446217861 5.7230953741 40.2255569374
Fe 18.6587874239 7.2318946132 41.6526466921
Fe 20.0331299952 5.7572878589 40.1324356041
Fe 21.5400517177 7.2311253554 41.6109424958
Fe 22.9194266399 5.7087680254 40.1927808124
Fe 24.3835188736 7.2293391475 41.6109988328
Fe 25.8229896741 5.7398736028 40.1409158032
Fe 27.2556498855 7.1828389217 41.6527269405
Fe 28.6658690867 5.7134386293 40.182680297
Fe 30.0967781935 7.2002324102 41.6496431572
Fe 31.616159982 5.7611492005 40.1972864414
Fe 33.0121088035 7.2237561292 41.6180091507
Fe 34.4664347178 5.7754127206 40.2181855933
Fe 35.9143967395 7.2297971394 41.5629222007
Fe 37.3390004551 5.7384862887 40.1232760383
Fe 38.7966818664 7.1702526672 41.6402440451
Fe 40.1543759376 5.7415536277 40.1413304075
Fe 41.6222253459 7.2132802912 41.5974203912
Fe 43.0692844102 5.7345955569 40.1543636388
Fe 44.5242144119 7.2076440425 41.6125306416
Fe 45.9175216412 5.7927700312 40.1607259774
Fe 47.355331186 7.2226292971 41.6281043749
Fe 48.7696906998 5.7935204801 40.1489661769
Fe 50.1819806475 7.23060949 41.6531518386
Fe 51.6329212063 5.7150096588 40.1285998005
Fe 53.0765713536 7.1962038004 41.6333187397
Fe 54.548799187 5.6943953671 40.1649539281
Fe 55.9542231108 7.1937574688 41.5855312249
Fe 0.0057706832 8.5984223892 40.1231959307
Fe 1.4590490666 10.0706405759 41.5613044685
Fe 2.9227423887 8.6578177328 40.2137248278
Fe 4.2539344193 9.9889511491 41.6239423416
Fe 5.797804104 8.6362130663 40.1304965306
Fe 7.1244800055 10.0528732484 41.5969127664
Fe 8.6626946595 8.5548497638 40.16934627
Fe 10.0457169622 10.0526612022 41.6019643396
Fe 11.522151187 8.5583786827 40.1923273736
Fe 12.9298425958 10.0640835586 41.6302146523
Fe 14.3009199228 8.6540074583 40.2173063446
Fe 15.8391085631 10.0277895748 41.6304619098
Fe 17.2396919506 8.6143433332 40.2296399748
Fe 18.643336597 10.0792393706 41.6022868486
Fe 20.1077470469 8.6274317023 40.2292563008
Fe 21.5393472255 10.0870954603 41.6467974296
Fe 22.9788559757 8.6251743304 40.204971836
Fe 24.3401262852 10.0532449003 41.5761239122
Fe 25.8132672724 8.6293422597 40.184757508
Fe 27.2721329289 10.0482410578 41.5735013413
Fe 28.7118710282 8.6398904594 40.1729149394
Fe 30.1858538961 10.0183452899 41.6118733356
Fe 31.550910588 8.5767081781 40.2176762715
Fe 33.0192626314 10.0796179218 41.5770350252
Fe 34.4426703949 8.5733302596 40.1742519974
Fe 35.8366608783 10.0820660894 41.6182890147
Fe 37.3525685328 8.6323114125 40.145616588
Fe 38.7764663068 10.0277784212 41.5809089225
Fe 40.1571557043 8.6300392298 40.1807718013
Fe 41.6674637866 10.0488293818 41.6444630697
Fe 43.0366671087 8.6312359493 40.2359056349
Fe 44.4710071089 10.0933645307 41.6152519698
Fe 45.9227311791 8.6118199667 40.20857965
Fe 47.3820026541 10.0816083024 41.5814383323
Fe 48.7914951714 8.5733247927 40.1233264746
Fe 50.2225154268 9.9990279009 41.606137248
Fe 51.6705599118 8.6506745784 40.1718410096
Fe 53.0897323245 10.0050187747 41.5962673268
Fe 54.5262759319 8.5848380202 40.1664153645
Fe 55.972078759 10.1021757816 41.5997764018
Fe 0.0199482947 11.4302056902 40.1662858687
Fe 1.3976411859 12.9680589961 41.6224046276
Fe 2.8151940564 11.5190465869 40.1966919654
Fe 4.2550382769 12.9683869807 41.5980495746
Fe 5.7847345677 11.4387320183 40.2348961381
Fe 7.220523818 12.9083843147 41.659320582
Fe 8.5916830242 11.4412393603 40.2047865332
Fe 9.9974944084 12.903824016 41.6488298452
Fe 11.4676470428 11.4257391866 40.2069360656
Fe 12.9329432828 12.9437859392 41.6033660689
Fe 14.4031269336 11.5105175366 40.1342380346
Fe 15.7615724755 12.8961180288 41.6578819349
Fe 17.1999730673 11.456280428 40.1902313085
Fe 18.6263295576 12.9603591365 41.5995123785
Fe 20.1305661595 11.4709688723 40.1289211475
Fe 21.5020379842 12.9189131499 41.5780325222
Fe 22.9588761659 11.4761970205 40.2311310551
Fe 24.4387804213 12.9286856362 41.6656489819
Fe 25.8846672737 11.4778605102 40.1701770007
Fe 27.3131992316 12.8975486168 41.6272037535
Fe 28.7002919297 11.4600354402 40.1655657726
Fe 30.101540011 12.9219429821 41.5666615093
Fe 31.5870596417 11.4947502686 40.1823628401
Fe 33.0095545812 12.9274838776 41.640270237
Fe 34.4170095599 11.4590535759 40.1646862275
Fe 35.8334128913 12.9514702086 41.5759928598
Fe 37.3263986101 11.5259361756 40.1535506295
Fe 38.7094927687 12.8941460106 41.6269228009
Fe 40.1347969646 11.5016787674 40.2030025773
Fe 41.5909323757 12.9110519629 41.6419593065
Fe 43.0528742785 11.4705511309 40.2369806948
Fe 44.4572235105 12.8921858232 41.6665196446
Fe 45.9236194054 11.4484623752 40.2140909013
Fe 47.3410441261 12.8629996607 41.6163840731
Fe 48.7596169499 11.4351108384 40.2265124805
Fe 50.2157774268 12.9167729529 41.5858905568
Fe 51.7022828169 11.5346580364 40.1946611835
Fe 53.1075870532 12.906101634 41.5844458024
Fe 54.4812005829 11.4694493146 40.1378694825
Fe 56.0012849681 12.9307402441 41.5720029288
Fe 0.0207144781 14.3325896233 40.1818669541
Fe 1.3778136227 15.8263062957 41.5699734694
Fe 2.8740297399 14.312080278 40.2281929896
Fe 4.3552441423 15.7992656034 41.5845444336
Fe 5.7850635551 14.3704975467 40.1692415315
Fe 7.126447773 15.8313754492 41.6479233949
Fe 8.6669720814 14.3505124912 40.1783716582
Fe 10.0063268221 15.8280828428 41.6445959404
Fe 11.4566058307 14.4035699998 40.1505575284
Fe 12.9120090737 15.7472513362 41.6366451216
Fe 14.3962359191 14.3139706961 40.2110332908
Fe 15.7606962072 15.7323160506 41.5601362875
Fe 17.2429511085 14.3743975715 40.1354061704
Fe 18.6744715413 15.7629614207 41.6269861635
Fe 20.0508204373 14.4008615692 40.1938344005
Fe 21.5155008777 15.7666694298 41.608366469
Fe 22.9296925491 14.3051463117 40.1430870637
Fe 24.4424196647 15.7511287185 41.6372371726
Fe 25.7931143464 14.3994980613 40.1522370624
Fe 27.2634779187 15.7742407603 41.6137571798
Fe 28.6881013305 14.3109365011 40.143341484
Fe 30.1153961586 15.8257317754 41.6511706873
Fe 31.589597039 14.3288045371 40.218042319
Fe 32.9609141817 15.7817058973 41.6678130054
Fe 34.4640839662 14.3189355834 40.1845676958
Fe 35.8855363381 15.7528824416 41.6344486698
Fe 37.3203538296 14.399216511 40.219638808
Fe 38.7981361341 15.8087208013 41.6587488487
Fe 40.237711398 14.3294633995 40.2377037937
Fe 41.5955632843 15.7302382596 41.6126120985
Fe 43.0746053734 14.3775996282 40.2279552818
Fe 44.4603322074 15.7868283668 41.6668004825
Fe 45.8665217623 14.3598287591 40.1763778107
Fe 47.3492463794 15.7663407111 41.5994847243
Fe 48.840247299 14.3202631991 40.1784627435
Fe 50.2162977727 15.7975724872 41.5748283051
Fe 51.672151402 14.3025231799 40.1670018352
Fe 53.088998361 15.8182581721 41.6111621588
Fe 54.5214967348 14.3143196372 40.1786042832
Fe 55.9174941635 15.7376676027 41.6670948091
Fe 57.3685725257 17.1950430726 40.1932218629
Fe 1.4267045416 18.6157574525 41.6452390383
Fe 2.8291353794 17.2684766789 40.1658569392
Fe 4.2724824754 18.6533489131 41.6108652254
Fe 5.735108866 17.2721874496 40.1997890834
Fe 7.2020148863 18.600776061 41.5933209079
Fe 8.6111403376 17.1838544416 40.213751733
Fe 10.0772764265 18.6670944425 41.6061882779
Fe 11.4286430293 17.191255372 40.1678117359
Fe 12.8629629986 18.603214553 41.658285451
Fe 14.3641264786 17.2589113973 40.1782723643
Fe 15.7500733988 18.675609605 41.5866219776
Fe 17.1647956436 17.1801249696 40.182864644
Fe 18.6404006887 18.67149461 41.6185410464
Fe 20.1221883858 17.2337220314 40.2373291771
Fe 21.5769835904 18.6287797959 41.6293986939
Fe 22.9114593074 17.1930537192 40.2312422308
Fe 24.3999620785 18.6093666097 41.6225349999
Fe 25.8588627073 17.2687000859 40.1688350418
Fe 27.2916007147 18.6494126399 41.6162295487
Fe 28.6590714362 17.19005026 40.155542906
Fe 30.1700447832 18.6420938084 41.5861205559
Fe 31.6151291104 17.1668891699 40.1812562747
Fe 32.9569637216 18.6706797262 41.655955451
Fe 34.3968764207 17.2075279546 40.2349063109
Fe 35.8325060217 18.6073153391 41.6064713644
Fe 37.3422298697 17.2053940193 40.1506756601
Fe 38.73112493 18.6957021832 41.670371548
Fe 40.1514190531 17.2736092399 40.1557365118
Fe 41.5772495177 18.6927234432 41.6644977913
Fe 43.0686908887 17.1999394187 40.1398228806
Fe 44.5014091081 18.6282011614 41.6610124246
Fe 45.8790692487 17.2355805348 40.1716874914
Fe 47.3081221439 18.6136667094 41.5667240529
Fe 48.7484598169 17.2573959043 40.1406887904
Fe 50.1721061659 18.6936894607 41.62652688
Fe 51.6969295316 17.1812180168 40.1550014373
Fe 53.1375656431 18.6658162111 41.5778796355
Fe 54.5854044322 17.258689728 40.1634510688
Fe 55.9437226674 18.6811693559 41.6600521829
Fe 0.0219772522 20.088092118 40.2205164423
Fe 1.381944647 21.4803406714 41.5672931372
Fe 2.8151207128 20.0407962144 40.157109152
Fe 4.3499962085 21.5625752738 41.5749940459
Fe 5.6984241511 20.0780729762 40.1931992665
Fe 7.2238182695 21.4838238219 41.6405819738
Fe 8.5682613069 20.1446180342 40.1875653052
Fe 10.0668402344 21.5565499815 41.6508256938
Fe 11.4417778351 20.1261850203 40.2086289355
Fe 12.9277290113 21.5178374607 41.6609214445
Fe 14.3071282686 20.1169851904 40.2145742128
Fe 15.8127775214 21.4871329482 41.5687719398
Fe 17.1944820848 20.0635427011 40.1936683091
Fe 18.6628600261 21.5661732686 41.5754044681
Fe 20.1204169675 20.0740749511 40.2243273951
Fe 21.5121223174 21.5754567417 41.639140561
Fe 22.9598428669 20.1384478733 40.1958020845
Fe 24.3546964764 21.5705684354 41.6096731261
Fe 25.8772239859 20.134520676 40.1287418895
Fe 27.2350082717 21.4794393323 41.5755395021
Fe 28.688031892 20.127408123 40.1470525078
Fe 30.1221313114 21.5818966472 41.5972056957
Fe 31.524976158 20.0834017557 40.1377618288
Fe 32.9776126402 21.5005480212 41.6120244218
Fe 34.3923120513 20.038746194 40.2031293194
Fe 35.928781746 21.4720308665 41.6015346914
Fe 37.330698494 20.0642506132 40.1383013295
Fe 38.7346340391 21.5390965185 41.6572076874
Fe 40.182751833 20.1280454373 40.1276366826
Fe 41.5770406402 21.5204089244 41.6334259419
Fe 43.0381287964 20.0662563978 40.2173210978
Fe 44.4967656292 21.5753406535 41.6521355846
Fe 45.9394995147 20.1286584489 40.1275782843
Fe 47.3022591836 21.4854106089 41.5778947075
Fe 48.8377706409 20.0881465477 40.2204860531
Fe 50.1802989475 21.5383596034 41.5900895207
Fe 51.7019132674 20.0437772484 40.144759556
Fe 53.1384831859 21.5089312501 41.6612707832
Fe 54.4727052314 20.0887979578 40.2265670041
Fe 55.9451890662 21.4677664599 41.601084549
Fe 57.3550188323 22.9600035632 40.1585762052
Fe 1.4347149362 24.3657617537 41.6330107072
Fe 2.9072979056 22.9704152277 40.2339992259
Fe 4.313148804 24.411523642 41.6710212278
Fe 5.7358855822 22.9109483443 40.1383979658
Fe 7.2223974147 24.4076320487 41.626586374
Fe 8.6278346073 22.9569893584 40.2275589161
Fe 10.0998862985 24.4074012526 41.6675392994
Fe 11.4906586819 22.9620318438 40.1635236158
Fe 12.8664990088 24.4179515148 41.6360410617
Fe 14.3671351567 22.9958960549 40.1918967479
Fe 15.7957635402 24.3440550522 41.5828985292
Fe 17.2444248376 22.9377748131 40.1428337393
Fe 18.6909300088 24.402275468 41.5795735492
Fe 20.0680895579 22.9819995026 40.2104261909
Fe 21.5662853217 24.4269771615 41.6418780777
Fe 22.9128373449 22.9829431617 40.1940448258
Fe 24.4045809963 24.406746664 41.6149171276
Fe 25.8366866863 22.9994124652 40.1713310481
Fe 27.2631458798 24.3589236078 41.5631882406
Fe 28.6948309487 22.9510291714 40.2168607131
Fe 30.1630750648 24.4292679208 41.5934776992
Fe 31.5448331008 22.9361177597 40.1693028633
Fe 33.0466313872 24.3592355707 41.6496798395
Fe 34.4463305711 23.0010718825 40.1672973028
Fe 35.869386119 24.4497109336 41.6154827011
Fe 37.2830402747 22.9994637674 40.1439663536
Fe 38.7922318138 24.3753796239 41.6252277608
Fe 40.1762286938 22.9337810462 40.1750501748
Fe 41.5998240896 24.3453751718 41.6697568286
Fe 43.079189334 23.0126104803 40.1464058317
Fe 44.4445660916 24.4438671769 41.577361062
Fe 45.9726734811 22.9236992003 40.16234974
Fe 47.3435396064 24.416637022 41.5600394435
Fe 48.7403544208 22.9910846242 40.1796397597
Fe 50.1925225054 24.3671428929 41.5891161954
Fe 51.6680772877 22.9400176698 40.192878393
Fe 53.1172953959 24.3857606258 41.6338152368
Fe 54.5286375646 22.9521051097 40.1552688413
Fe 55.9403693959 24.3649972634 41.6707975204
Fe 6.2966761e-04 25.8551672518 40.2369263355
Fe 1.4622117057 27.2734103176 41.6579778959
Fe 2.8630375614 25.8314228111 40.1406705082
Fe 4.3622942514 27.2600866276 41.633750817
Fe 5.718603689 25.8542175758 40.1312446101
Fe 7.1265091468 27.2822348504 41.5873687319
Fe 8.6658224873 25.8618966647 40.1572068775
Fe 10.0006397524 27.2927662022 41.5624408107
Fe 11.4986324801 25.8031459271 40.1556221105
Fe 12.9123774866 27.2317743603 41.5849492934
Fe 14.3907718049 25.7956527275 40.1828109773
Fe 15.7291052258 27.3018575358 41.6371039571
Fe 17.2165769544 25.8360630184 40.1886363473
Fe 18.7118814741 27.2814388241 41.6518057288
Fe 20.0478587524 25.8678465727 40.1955241131
Fe 21.5768263682 27.240714208 41.5885196526
Fe 23.0124541901 25.7947567635 40.1960653861
Fe 24.3420703612 27.2737461652 41.5806239745
Fe 25.848957995 25.8505844812 40.1801728397
Fe 27.2566795555 27.2953233368 41.6711993105
Fe 28.693982943 25.8421419416 40.2134329238
Fe 30.1256840933 27.2111169977 41.6500970859
Fe 31.5252595548 25.7830308327 40.197367967
Fe 33.0433619565 27.2355104341 41.5788726568
Fe 34.4977826479 25.7774015709 40.1332625431
Fe 35.8868100392 27.2196411815 41.5821993843
Fe 37.3664810899 25.8641877668 40.2216563927
Fe 38.7710519864 27.2846101103 41.5996461973
Fe 40.2164448332 25.7787040081 40.1253120086
Fe 41.6639641778 27.2369366576 41.6061475328
Fe 43.0586173528 25.8613945402 40.1629189441
Fe 44.4862351603 27.2661541815 41.6315383028
Fe 45.8992164811 25.8439580013 40.2311272228
Fe 47.3569934453 27.2470966721 41.6696546339
Fe 48.7557320154 25.8702000359 40.1333411944
Fe 50.1849985496 27.27113262 41.6246043168
Fe 51.6450639441 25.8156300911 40.1651613171
Fe 53.0413489282 27.2818337068 41.6310380849
Fe 54.4969128457 25.8020535663 40.186270198
Fe 55.9753813953 27.2843929615 41.5683681891
Fe 0.0189360268 28.7308609885 40.1327064825
Fe 1.3902711481 30.1050783279 41.6353138053
Fe 2.9125968553 28.7272242721 40.1253243043
Fe 4.3564710903 30.095057945 41.6493103694
Fe 5.7721099381 28.7468807588 40.1985797962
Fe 7.1972063876 30.1340899506 41.5921900024
Fe 8.5643269271 28.6575191421 40.137231442
Fe 9.9989209039 30.1895605334 41.593666687
Fe 11.4377127838 28.69937951 40.195083191
Fe 12.9500431376 30.1209043135 41.6077412659
Fe 14.3534888684 28.6758788374 40.1613247743
Fe 15.8300433384 30.1354260166 41.6240318664
Fe 17.1877374067 28.7005587618 40.2358335851
Fe 18.6337199828 30.1794125435 41.6231834721
Fe 20.0933103718 28.7147639071 40.1359901755
Fe 21.4715249906 30.1842480577 41.6507268803
Fe 22.9570969247 28.7572363499 40.1927542408
Fe 24.3653800436 30.0868219677 41.607049049
Fe 25.8514646114 28.6982424824 40.1779001597
Fe 27.2216811724 30.1319492896 41.6527740489
Fe 28.6694140885 28.707357949 40.2308329567
Fe 30.0897210832 30.1744583586 41.5657236996
Fe 31.5537118915 28.7079199142 40.1905763649
Fe 33.0477928022 30.1251005447 41.6192699451
Fe 34.3960904231 28.7283592732 40.2294078047
Fe 35.8602739009 30.0968274369 41.6213818211
Fe 37.2758559087 28.6591647771 40.2101702994
Fe 38.7592084454 30.1579274883 41.6491463482
Fe 40.1670459757 28.7441726922 40.169871373
Fe 41.6071874851 30.1283162835 41.5852445133
Fe 43.1022159154 28.7145339996 40.2190078073
Fe 44.4374549136 30.171581269 41.642245891
Fe 45.9771383948 28.7264668315 40.172230124
Fe 47.3448218081 30.1453521084 41.5908702911
Fe 48.8076364546 28.7055833559 40.1730180793
Fe 50.2238165499 30.1645704508 41.6529007164
Fe 51.7012145834 28.6681469939 40.1350168234
Fe 53.0742985785 30.1063974137 41.672272933
Fe 54.5758572349 28.7563680572 40.1625427763
Fe 55.9133897693 30.1814128032 41.6259075852
Fe 0.0367164941 31.6190813247 40.1656683756
Fe 1.4731411023 33.0378563514 41.6217874961
Fe 2.844398929 31.5996737211 40.2069398539
Fe 4.2895433571 32.9966002668 41.6128996025
Fe 5.7926365814 31.5170310589 40.1365113569
Fe 7.157576182 32.970723738 41.5613203184
Fe 8.5874701684 31.5142753396 40.1813217654
Fe 10.099435183 32.966668426 41.5926654293
Fe 11.47515209 31.5722038462 40.2182977998
Fe 12.91650308 32.9613189719 41.5697594233
Fe 14.4070242285 31.5662595966 40.1503550963
Fe 15.799651004 32.9861038685 41.5988998129
Fe 17.1908621523 31.5212424941 40.2069776288
Fe 18.6718826987 32.9720475841 41.6481108188
Fe 20.0383380439 31.5928497795 40.1534102704
Fe 21.4967828484 32.9826465344 41.5788007105
Fe 23.0170148671 31.5706403067 40.1426432908
Fe 24.4061734717 33.0435422651 41.6080957891
Fe 25.8431340248 31.5147377904 40.1756765983
Fe 27.2602511601 32.9968088642 41.6710197275
Fe 28.6596439426 31.5328989818 40.1775432557
Fe 30.1462506498 33.0119695003 41.6008768344
Fe 31.5510965363 31.5151676907 40.151840319
Fe 32.9973018766 33.0007747185 41.5762753137
Fe 34.4567290144 31.5569188268 40.166617647
Fe 35.9132295494 32.9517748365 41.6722896268
Fe 37.3552907679 31.6039323816 40.1579173552
Fe 38.7080787124 32.9486479738 41.6706784227
Fe 40.1402925762 31.5411026137 40.2305511808
Fe 41.5614260561 33.0603892864 41.589599001
Fe 43.0063188674 31.5821454955 40.1526923462
Fe 44.5341837671 33.0375534627 41.6319897012
Fe 45.927679619 31.6180431078 40.2094715557
Fe 47.4050286627 33.0448556263 41.5758152254
Fe 48.7367523106 31.5997550006 40.153978909
Fe 50.2420546359 33.0321917266 41.5974103381
Fe 51.6730443728 31.5515185666 40.2213759966
Fe 53.0618897236 32.9631391165 41.6145475253
Fe 54.5498760531 31.5752029672 40.2131180124
Fe 55.9238744287 33.0017920108 41.631397582
Fe 57.3906701263 34.4534399792 40.1749287998
Fe 1.4334976508 35.858294065 41.619427472
Fe 2.8586692892 34.3961238958 40.2028309251
Fe 4.2869498657 35.841561245 41.6584744084
Fe 5.7060718542 34.386824115 40.2333449539
Fe 7.1834399607 35.9182499749 41.6246413036
Fe 8.5722725287 34.3848120256 40.1534725342
Fe 10.0172876034 35.8530756125 41.6351182628
Fe 11.4250872293 34.4520696865 40.1320739897
Fe 12.9033522914 35.9092396784 41.6692955369
Fe 14.3754763349 34.4556549043 40.149356286
Fe 15.8179270473 35.8646294757 41.6216265212
Fe 17.192565176 34.4570225432 40.134817588
Fe 18.6478077118 35.9280338676 41.587409935
Fe 20.0533846729 34.4694951792 40.155947751
Fe 21.536569619 35.9194996306 41.577730715
Fe 22.9029758496 34.4957381958 40.2374592019
Fe 24.4299251907 35.929214597 41.5902766142
Fe 25.8555733835 34.4756049342 40.1597375443
Fe 27.3084639725 35.8232670265 41.6424388328
Fe 28.7173853576 34.4026668231 40.2294477015
Fe 30.0860230417 35.9154905659 41.5761491094
Fe 31.621567693 34.4238483702 40.1957840635
Fe 33.0592985573 35.8413618043 41.6507907425
Fe 34.415634297 34.4536567876 40.2102840197
Fe 35.880820529 35.871723323 41.6440482849
Fe 37.3643594503 34.4069668291 40.2058762297
Fe 38.7062271851 35.9106830188 41.6134811591
Fe 40.1614200112 34.4622646046 40.2255492978
Fe 41.6653667346 35.8174505901 41.5847723593
Fe 43.1020371238 34.4645321886 40.1781068789
Fe 44.4343249695 35.8226798337 41.6388535672
Fe 45.9066427517 34.4258562822 40.1468946737
Fe 47.3531772236 35.9192584536 41.5699374144
Fe 48.7754171936 34.4448218982 40.1873364322
Fe 50.2547261986 35.9046508454 41.6438516879
Fe 51.6270507207 34.3943585932 40.2018130877
Fe 53.0716817803 35.8236935902 41.5663706111
Fe 54.4905652435 34.4612085223 40.2276075055
Fe 55.9800710444 35.8472195663 41.6625579307
Fe 0.0114850627 37.3411091412 40.1585232213
Fe 1.4721635972 38.7182596037 41.5885760542
Fe 2.8766368098 37.3606130445 40.1716583801
Fe 4.3243616309 38.6965905881 41.5894854087
Fe 5.7100077633 37.3241276351 40.1390462625
Fe 7.1199550485 38.7206506268 41.6721544148
Fe 8.6439048237 37.2672967408 40.2331743451
Fe 10.0989530621 38.7229084901 41.5716891744
Fe 11.4803491321 37.3220356234 40.1505616238
Fe 12.9239281586 38.7867199654 41.6365322374
Fe 14.3990096411 37.3518797348 40.1629104586
Fe 15.8294307182 38.7931517401 41.5792409378
Fe 17.2614584033 37.289545353 40.2069160062
Fe 18.663565219 38.6946366195 41.6481880188
Fe 20.034315858 37.2827703011 40.2175158886
Fe 21.5147623399 38.798255415 41.6327506656
Fe 22.9842296418 37.2899015559 40.1961360035
Fe 24.4048879819 38.7966055543 41.6516888422
Fe 25.8222212087 37.2926033602 40.1520687127
Fe 27.2914967727 38.7218323547 41.6093979076
Fe 28.751744159 37.2601897156 40.174895584
Fe 30.1659081486 38.7340730478 41.6330588137
Fe 31.5968367871 37.2697231443 40.1943017887
Fe 32.974907393 38.785095766 41.6549056015
Fe 34.4546471311 37.298519834 40.1447823889
Fe 35.9187938165 38.7440503785 41.6477637773
Fe 37.2699248864 37.3609819577 40.1914957671
Fe 38.7122247409 38.7058155814 41.5953121267
Fe 40.1445061994 37.3029193633 40.2057186828
Fe 41.5737123934 38.6975602464 41.6159363917
Fe 43.0094004427 37.2597742881 40.2206397934
Fe 44.4791658517 38.7557811182 41.5968266702
Fe 45.8805714453 37.3231585024 40.2370272085
Fe 47.3895963947 38.7417924894 41.5997344305
Fe 48.8078937829 37.3654765418 40.2216285437
Fe 50.2176336902 38.6900046538 41.6502118399
Fe 51.6265625976 37.2531917957 40.1373337194
Fe 53.0971499313 38.740555565 41.594959334
Fe 54.5763254296 37.281694617 40.1948189495
Fe 55.983348264 38.765023249 41.6572164334
Fe 0.0279055624 40.1810877085 40.1619937403
Fe 1.4208764068 41.651344414 41.6517333021
Fe 2.8682878945 40.2036227218 40.1581478084
Fe 4.2718166361 41.5746318265 41.62622225
Fe 5.7140044817 40.1670088576 40.2323743714
Fe 7.1808512569 41.6273653697 41.6342035576
Fe 8.5637167377 40.2075963843 40.2376223804
Fe 10.0974110548 41.6548460643 41.5795975016
Fe 11.514670626 40.1754812419 40.2174858304
Fe 12.9682155238 41.5857550571 41.557545594
Fe 14.3137567354 40.2299986433 40.1718058185
Fe 15.7671819622 41.6526398724 41.5577457962
Fe 17.2623823283 40.1361701358 40.2096005534
Fe 18.6178528477 41.594192978 41.6023126961
Fe 20.0894266775 40.1427702665 40.1958819825
Fe 21.5732046745 41.6700581287 41.6247894814
Fe 23.0000224824 40.2021229304 40.2230842865
Fe 24.4515234224 41.6674905829 41.6103591969
Fe 25.8036359688 40.1631952994 40.1423264992
Fe 27.2150154152 41.5579923562 41.6192376121
Fe 28.7437375123 40.156974761 40.1422285083
Fe 30.1125736085 41.6548269809 41.6352009924
Fe 31.5125578494 40.1286601724 40.1529436011
Fe 33.0617454042 41.5961226471 41.5904581539
Fe 34.4493850216 40.1322202615 40.1265433262
Fe 35.8922223281 41.5677016914 41.6548639678
Fe 37.3652750815 40.2031786892 40.1545399654
Fe 38.7849557917 41.578138707 41.6226633538
Fe 40.1610024235 40.2043828289 40.1469320446
Fe 41.6616665332 41.6260247986 41.655231998
Fe 42.9943572111 40.1953350388 40.1426406093
Fe 44.4442897597 41.6318084548 41.5725395164
Fe 45.914417231 40.1819986255 40.1865055151
Fe 47.4113745363 41.5577281034 41.6430968997
Fe 48.8278882943 40.2303235739 40.2061683641
Fe 50.2795515112 41.5733804698 41.66964812
Fe 51.6569687559 40.1741044269 40.129118335
Fe 53.1396433403 41.6352831968 41.6099174856
Fe 54.5622225702 40.2119946506 40.2364070773
Fe 56.0114984334 41.6288157012 41.6390585374
Fe 0.0359503121 43.0633478788 40.2098541378
Fe 1.444743368 44.4573007869 41.6423028999
Fe 2.9102250416 42.9927548353 40.1626348679
Fe 4.3004324626 44.5269148405 41.6493702847
Fe 5.7936667162 43.077734768 40.1873643491
Fe 7.2286654726 44.4365449258 41.5622338284
Fe 8.6438694307 43.0370308624 40.1689721668
Fe 10.0462486819 44.5397531755 41.6080206486
Fe 11.4922192125 43.0893020162 40.1891699572
Fe 12.9103564958 44.4542286664 41.6553339052
Fe 14.3024832137 43.0859579821 40.1238567192
Fe 15.8278203531 44.4633494944 41.5970672049
Fe 17.1680482354 43.0175305399 40.2258537342
Fe 18.6988571144 44.4291172337 41.5902506267
Fe 20.1174026022 43.0178701709 40.1875718039
Fe 21.5034105735 44.4845916067 41.5652601285
Fe 22.9264240663 43.0799800853 40.2090915679
Fe 24.4029986098 44.4341553651 41.5779407177
Fe 25.8835985521 43.0695857682 40.1754888429
Fe 27.2623828786 44.4707187123 41.5810425253
Fe 28.6804505407 43.0562038565 40.2044107223
Fe 30.1913545114 44.497579402 41.6159998634
Fe 31.5906093656 43.0836828745 40.2103202907
Fe 33.0511888456 44.4428696829 41.6249098839
Fe 34.3831257363 43.0082660186 40.140118357
Fe 35.8947456778 44.5334628198 41.6162495313
Fe 37.2914428049 43.0301238245 40.236147229
Fe 38.7929570208 44.4823762975 41.6726375151
Fe 40.1316139549 42.9987524332 40.2201742604
Fe 41.5587300411 44.5398532835 41.6154283413
Fe 42.9926483133 43.0052212711 40.217117686
Fe 44.4688252485 44.4339837753 41.6210071072
Fe 45.8870341764 43.0476900741 40.1227757044
Fe 47.4100850846 44.5288498231 41.6190749014
Fe 48.7933028998 43.0848206138 40.1289500642
Fe 50.204863782 44.5425913108 41.6123928674
Fe 51.6848264159 43.0769927067 40.1868833002
Fe 53.1353652013 44.4713266597 41.6453956861
Fe 54.5674605861 43.0929154948 40.2352127967
Fe 55.9517918951 44.515375188 41.5823649665
Fe 0.046175526 45.8893401034 40.157368827
Fe 1.410190707 47.3256253728 41.6490019501
Fe 2.8151124158 45.9102305976 40.161243034
Fe 4.3162590032 47.3640507727 41.6643337306
Fe 5.7372354714 45.8859816115 40.2167147118
Fe 7.2209732603 47.3863550681 41.5864071953
Fe 8.6320429646 45.9614512954 40.1986360553
Fe 10.0673487469 47.3772303673 41.6469688495
Fe 11.4338378253 45.8743433839 40.2183636444
Fe 12.8733322807 47.3935779839 41.6449794973
Fe 14.2990017718 45.9286116972 40.2231017306
Fe 15.8285878957 47.3155900333 41.6686569101
Fe 17.2528321062 45.943417668 40.160729445
Fe 18.711096263 47.4019012896 41.5978748719
Fe 20.1279323028 45.9211423914 40.1569645822
Fe 21.5195700157 47.3786722836 41.622788127
Fe 22.9246738698 45.8950732818 40.1591267942
Fe 24.449792857 47.3078621232 41.6582273266
Fe 25.8001323236 45.863376955 40.2149784134
Fe 27.3145808057 47.3278761207 41.6619985783
Fe 28.665986101 45.946227417 40.228702324
Fe 30.1512660912 47.3123024297 41.6076045063
Fe 31.5575820514 45.9765942847 40.2088942092
Fe 32.9635893967 47.3278113123 41.6189392992
Fe 34.4490173315 45.9179373876 40.1436501725
Fe 35.9255393981 47.3685516792 41.6615283181
Fe 37.3056424957 45.869990821 40.1750049251
Fe 38.6976808171 47.3239567917 41.6438616845
Fe 40.1341283021 45.9194296622 40.1223195744
Fe 41.5788320504 47.412620691 41.6359621547
Fe 42.9949869487 45.9506474766 40.1700305326
Fe 44.4703325061 47.3275200249 41.6413074051
Fe 45.8863384375 45.8664631302 40.2172379927
Fe 47.313670763 47.3951676161 41.5872435303
Fe 48.7347159441 45.9215795785 40.2310736734
Fe 50.2154403397 47.3774657814 41.6169629906
Fe 51.6891865399 45.9203031316 40.1264198213
Fe 53.1321236969 47.3201495927 41.6119671482
Fe 54.4921950713 45.8871158462 40.2268870791
Fe 56.0000238516 47.3907771611 41.6581743622
Fe 57.3522208049 48.8084307632 40.1644678613
Fe 1.4421901607 50.2247404426 41.6365982081
Fe 2.8678552032 48.7991602171 40.1628807419
Fe 4.2766945943 50.2769853385 41.6348988762
Fe 5.7754800359 48.8287077237 40.1730568195
Fe 7.1209595218 50.2739393857 41.6385778289
Fe 8.5732120461 48.7389092093 40.1647435904
Fe 10.0600758986 50.1959909104 41.584755693
Fe 11.4947972579 48.8377352155 40.1355232209
Fe 12.9032771231 50.2034821452 41.6261970643
Fe 14.3861686845 48.7398586993 40.1607939103
Fe 15.7613724895 50.2209016795 41.577597386
Fe 17.2704470326 48.7759983963 40.20893496
Fe 18.6786269523 50.1713066273 41.6694253527
Fe 20.0980414415 48.8260102327 40.1249389916
Fe 21.5317387618 50.2330101121 41.6727158517
Fe 23.0081016807 48.8238729903 40.2332088749
Fe 24.4141780478 50.2254312969 41.6124944797
Fe 25.8690441693 48.8281649033 40.2236642983
Fe 27.3210526407 50.2582619964 41.5766246678
Fe 28.6793269679 48.740587243 40.189782423
Fe 30.1069611371 50.1910758607 41.6495646031
Fe 31.5838401086 48.8013001541 40.2151156753
Fe 33.0508242669 50.2268769371 41.5976667952
Fe 34.426619211 48.7870013103 40.1710376816
Fe 35.8565341542 50.2431102335 41.6697001626
Fe 37.3507153766 48.7641638566 40.1901156739
Fe 38.7261685292 50.1980187433 41.6642957111
Fe 40.1534116057 48.7471864756 40.2318717098
Fe 41.6039814535 50.1950293251 41.6136794057
Fe 43.0908096687 48.8069472974 40.2373594302
Fe 44.4831038638 50.1896408219 41.638042359
Fe 45.9238781466 48.8296668717 40.2113211205
Fe 47.3500751774 50.2512290861 41.6102035904
Fe 48.8150803857 48.7873324852 40.1679140625
Fe 50.2288977602 50.1824607714 41.6136285026
Fe 51.715290308 48.8242563253 40.2233795896
Fe 53.1063687147 50.2264845127 41.621438356
Fe 54.4941156518 48.7377247967 40.2309471167
Fe 55.9161755572 50.256516544 41.614449403
Fe 57.3828039236 51.624076439 40.173844346
Fe 1.4189117548 53.0582265778 41.6333516508
Fe 2.872991032 51.6707808463 40.1939156175
Fe 4.3381314885 53.1463259569 41.6154568274
Fe 5.7861963052 51.7039943958 40.140747008
Fe 7.1387974377 53.059636885 41.6464215874
Fe 8.6578572589 51.6634761027 40.1904168444
Fe 9.9987185302 53.0848140255 41.5803544841
Fe 11.5313310971 51.6663580448 40.2157981995
Fe 12.8767951155 53.0545164909 41.6496701074
Fe 14.3261153382 51.6975686291 40.1296214963
Fe 15.7716800084 53.143282423 41.6107067246
Fe 17.2071402823 51.6475176909 40.1784349388
Fe 18.6366900502 53.1084228017 41.6682763279
Fe 20.0515663388 51.7101760819 40.1837703283
Fe 21.5105046471 53.1008927251 41.6243012569
Fe 22.9725656477 51.6820438912 40.2280020599
Fe 24.4131803184 53.1188108108 41.616890027
Fe 25.845699005 51.6239196535 40.1667508853
Fe 27.3128949569 53.0790228968 41.6454835996
Fe 28.6829326498 51.6385460857 40.1246767437
Fe 30.0815586193 53.11980232 41.6226105175
Fe 31.6256271021 51.6406812684 40.1580482992
Fe 33.0138517352 53.1237816185 41.6199315362
Fe 34.4670275379 51.6468521985 40.2104811494
Fe 35.9106827094 53.1476691287 41.6656347487
Fe 37.3647884286 51.6975586252 40.1907004653
Fe 38.777798728 53.1433241222 41.6358464671
Fe 40.1931149517 51.697042104 40.125387923
Fe 41.6387488938 53.0606255595 41.645859879
Fe 43.0399176653 51.6212111289 40.1968785867
Fe 44.4622580917 53.124613493 41.653462738
Fe 45.9055824564 51.6860795624 40.1384897044
Fe 47.2985390599 53.1249381164 41.6429484642
Fe 48.7966098163 51.7006408797 40.2351030229
Fe 50.2286054537 53.146083922 41.5796339826
Fe 51.6975916543 51.6333377266 40.2056700809
Fe 53.0937530725 53.1187774989 41.6619615304
Fe 54.5037695296 51.6098278008 40.1501786354
Fe 55.9541248011 53.0853695212 41.6084471747
Fe 57.3553166394 54.5813038789 40.1802454763
Fe 1.3906879227 55.9883063034 41.603542041
Fe 2.8844320975 54.4946425049 40.1432241406
Fe 4.2569987588 55.9545130029 41.6200250083
Fe 5.7896073361 54.531994637 40.1594807386
Fe 7.1303485353 55.9412499902 41.6016624861
Fe 8.660778591 54.5016814363 40.1456129642
Fe 10.0599621184 56.0158963798 41.6578878752
Fe 11.5350947257 54.4850646112 40.1696009653
Fe 12.9280566662 55.9522427757 41.6089065398
Fe 14.3371439549 54.5060250066 40.2226891999
Fe 15.8364038869 55.9655983652 41.6057784399
Fe 17.2375149614 54.5347261963 40.1884362927
Fe 18.6088669732 55.951389029 41.6506210053
Fe 20.140943935 54.56365416 40.230835204
Fe 21.5214381014 55.9999721784 41.6061432277
Fe 22.986497527 54.5183903889 40.2174950283
Fe 24.3917535054 56.0097901081 41.6460763074
Fe 25.8416559644 54.5718919673 40.177165002
Fe 27.2102793734 55.949174345 41.5713213721
Fe 28.734114312 54.502926669 40.2363340165
Fe 30.1299348295 55.9961440885 41.5687522352
Fe 31.5477291806 54.5202763374 40.1351275923
Fe 32.9633221677 55.9715900196 41.5830134424
Fe 34.4809773535 54.567600667 40.1713314719
Fe 35.8435678496 55.9253652482 41.5634494159
Fe 37.2634995339 54.5748055145 40.1995741785
Fe 38.778992709 55.9601108469 41.6260778915
Fe 40.190006053 54.5447568898 40.1994725074
Fe 41.645401747 55.9565770563 41.6505946652
Fe 43.0315410378 54.4766596447 40.1453082544
Fe 44.4471458737 56.0162971296 41.5966081678
Fe 45.9156058627 54.585129142 40.2158181955
Fe 47.2989030789 56.0098232046 41.6648056564
Fe 48.8226238102 54.5458055059 40.2262437137
Fe 50.2517088779 55.9985290171 41.5819171279
Fe 51.7177959024 54.4738597119 40.1961520966
Fe 53.1526823411 55.9899563579 41.6003969938
Fe 54.5239018089 54.5285226551 40.1597032681
Fe 55.9781156204 55.9657137973 41.6600633468
Fe 57.3698756553 0.0251155143 43.0527765338
Fe 1.4049259411 1.3911827738 44.5359233788
Fe 2.8289819125 0.0208590315 43.0598126373
Fe 4.350960427 1.3893646563 44.5344587281
Fe 5.7684469287 57.373485097 43.0864845666
Fe 7.1299582642 1.3833472977 44.5210120121
Fe 8.5844329313 0.0170732837 43.0539441618
Fe 10.0685622926 1.4137705932 44.5113101243
Fe 11.5344844767 57.3882613589 43.0303739272
Fe 12.9433833056 1.42930805 44.4995582732
Fe 14.3234346405 57.3888184959 43.0467329378
Fe 15.7513054132 1.4718397946 44.4760463887
Fe 17.2165662993 57.377664244 43.0648260238
Fe 18.6617938553 1.3994987486 44.5258715675
Fe 20.1064570078 57.3923209406 43.0608750152
Fe 21.5392962975 1.4830795922 44.5354295366
Fe 22.965421488 57.3684493189 43.0626748046
Fe 24.4214550561 1.4095085507 44.4809650967
Fe 25.8744642241 57.3836982836 43.0301446108
Fe 27.2379295243 1.3860607059 44.456534329
Fe 28.6567485718 0.027118541 43.061341805
Fe 30.1679360552 1.4528309327 44.4589113874
Fe 31.6070222792 57.3988658197 43.0519250823
Fe 32.9486038739 1.4146698046 44.5252150333
Fe 34.4978164495 57.3603159078 43.0679340504
Fe 35.929972339 1.4604887302 44.4777539631
Fe 37.3145952246 0.010061168 43.0366753766
Fe 38.7980348071 1.4377171667 44.4440875665
Fe 40.2119000056 0.0213320147 43.013143234
Fe 41.5714211094 1.4098621302 44.4297678476
Fe 43.0099764255 0.036596704 43.094104996
Fe 44.4407154737 1.4233443891 44.5388739562
Fe 45.8716538908 57.3767754595 42.9934031618
Fe 47.3452806616 1.4287536196 44.5136111035
Fe 48.8182153263 0.0133209435 43.0209960116
Fe 50.2374841602 1.4387740175 44.5005415001
Fe 51.6854216953 0.0365978224 43.0292316629
Fe 53.0376717555 1.4718596747 44.4935781651
Fe 54.5545867665 57.3606799362 43.0455942329
Fe 55.9489236393 1.4163547979 44.4425669316
Fe 0.0056910426 2.8619813848 43.0917401014
Fe 1.4144054318 4.3612833371 44.5229355811
Fe 2.8650961018 2.9077454909 43.1069365282
Fe 4.3516156142 4.3236188046 44.4354996024
Fe 5.7785644362 2.9274211894 43.0059657136
Fe 7.1687081982 4.2486878534 44.4404739563
Fe 8.6374075153 2.8558283442 43.0908634667
Fe 10.0196642638 4.2947769423 44.5053928319
Fe 11.4718863622 2.8723126464 42.9990373669
Fe 12.870328772 4.2968796979 44.4740544342
Fe 14.3225259517 2.8891388015 43.025369248
Fe 15.7735591869 4.3012895502 44.529115662
Fe 17.2001224713 2.8372622892 43.0159995552
Fe 18.6692315222 4.3422478889 44.435889269
Fe 20.0638688891 2.9152736551 43.1059482052
Fe 21.5789879062 4.2711607988 44.4809378884
Fe 22.9158006697 2.8510869982 43.0830507361
Fe 24.3828056628 4.3424530406 44.4893875581
Fe 25.86084396 2.9252999521 43.0078835089
Fe 27.277962279 4.2561222701 44.4571212374
Fe 28.6521482057 2.8523917247 43.0647961891
Fe 30.080074853 4.3173193812 44.4428214094
Fe 31.5587262037 2.9273248314 43.1039349252
Fe 33.0386428039 4.3308663932 44.4328393216
Fe 34.4358126417 2.8886781834 43.0272435241
Fe 35.8462671768 4.2654451846 44.5300153493
Fe 37.2698979891 2.8141059399 43.0784533028
Fe 38.7683354604 4.30977347 44.4762500231
Fe 40.1255845281 2.9037967636 43.0648249412
Fe 41.6673400948 4.3180000928 44.4924450883
Fe 43.0733453223 2.9258487446 42.9969301172
Fe 44.5126402294 4.2503114338 44.5022928131
Fe 45.9523401442 2.9178591773 43.0737563335
Fe 47.3995708297 4.286917609 44.4765600155
Fe 48.7958067201 2.858878945 43.1001845434
Fe 50.2748551914 4.3502489132 44.4910662799
Fe 51.6696509896 2.8593501196 43.1019103374
Fe 53.0829408353 4.2986715436 44.5392588131
Fe 54.5367088062 2.8624909931 43.0789575147
Fe 55.958960816 4.2783048305 44.4587790326
Fe 57.3891621678 5.7202783221 43.1043441218
Fe 1.4418087788 7.191632635 44.4321660684
Fe 2.9021954519 5.7531564691 43.0733949171
Fe 4.2900445924 7.175422343 44.4605390129
Fe 5.7767409736 5.7791923954 43.0739750908
Fe 7.1593237997 7.1202210689 44.4578548437
Fe 8.5984857221 5.7755472233 43.0719470851
Fe 10.0855404903 7.2003569105 44.53409816
Fe 11.5107729133 5.7281132005 43.0039733705
Fe 12.9418094658 7.209356703 44.5015410103
Fe 14.4020274474 5.769471059 43.0487857853
Fe 15.7335575623 7.1462928154 44.5021112488
Fe 17.2299273311 5.7337886692 43.0114821685
Fe 18.7063225831 7.2231954562 44.5202009281
Fe 20.1159402402 5.6889150629 43.0668839154
Fe 21.5124016425 7.2202351588 44.4303468866
Fe 22.9300584065 5.6877682766 43.0692426736
Fe 24.4070677946 7.1223299323 44.4590325103
Fe 25.8667920746 5.7460451697 43.0740687286
Fe 27.2547548061 7.2146110693 44.4957954673
Fe 28.6633533947 5.7813642321 43.0890756391
Fe 30.1806892026 7.1999950726 44.4412808554
Fe 31.568148203 5.7736295035 43.0744977949
Fe 33.0349833273 7.1952576307 44.4751100833
Fe 34.39825325 5.6867934391 43.0742935484
Fe 35.8843881589 7.1729110843 44.4906638753
Fe 37.3533329581 5.7759661473 42.9999004404
Fe 38.7823933728 7.1409937504 44.5220659014
Fe 40.2237220956 5.6920617604 43.0208435668
Fe 41.6026072556 7.1636992289 44.5154709044
Fe 43.0939256693 5.7002787521 43.099656212
Fe 44.4763427441 7.2015113658 44.4657226024
Fe 45.9231339797 5.7427122634 43.0338981568
Fe 47.3593657248 7.1919228085 44.4811876118
Fe 48.7385159233 5.7017969143 43.007649879
Fe 50.2131835667 7.1358773143 44.4735360108
Fe 51.6814275481 5.733751795 42.9967320326
Fe 53.1327108433 7.1589303615 44.4525300695
Fe 54.5186124966 5.7247208773 43.0656546114
Fe 55.9188760332 7.160944477 44.5217922789
Fe 57.3630378445 8.6290082511 43.0203727384
Fe 1.4518466637 10.1009818814 44.526410173
Fe 2.8715957918 8.6077846067 43.0610986638
Fe 4.2655288399 10.0969509802 44.5300788739
Fe 5.7417615973 8.657301733 43.0766390921
Fe 7.1309746911 10.0700383596 44.5269210644
Fe 8.5947787029 8.6167867202 43.0924832358
Fe 10.0913141681 10.032515031 44.4515982117
Fe 11.4950882076 8.5955532683 43.0133624425
Fe 12.9042830624 10.0043279602 44.5060311
Fe 14.2978475655 8.6054611673 43.0699574483
Fe 15.7585123976 9.9886580612 44.5004680072
Fe 17.232522427 8.5740927739 43.0259869663
Fe 18.6700984488 10.0555938721 44.4395332877
Fe 20.0336388657 8.6374778782 43.0662308154
Fe 21.5265299815 10.0401448159 44.5017582582
Fe 22.9364913624 8.6427487181 42.9967746488
Fe 24.4098277471 9.9930653529 44.4678664912
Fe 25.8264343198 8.6540080324 43.0459864674
Fe 27.2509972592 9.9997635261 44.5402972636
Fe 28.6450258197 8.5882391801 43.0304831321
Fe 30.1671094449 10.0221829173 44.492581706
Fe 31.5654687141 8.622343336 43.1022804415
Fe 32.9684410776 10.0676180657 44.472426369
Fe 34.4598109691 8.6051665884 43.0738372043
Fe 35.8455392116 10.0008291959 44.4465690101
Fe 37.3587155322 8.5993862999 43.0085593645
Fe 38.7150852789 10.0732845175 44.5369801474
Fe 40.1985400063 8.6493008145 43.0518632351
Fe 41.6021237384 10.0411044736 44.5025094418
Fe 43.0269790156 8.655904656 43.0104956608
Fe 44.4753281627 10.0809920558 44.5364947605
Fe 45.9270770265 8.6171241462 43.0041372128
Fe 47.4015238877 10.037733891 44.5008899433
Fe 48.7912685589 8.5633954341 43.0956439
Fe 50.2303577972 10.0731306611 44.4644991955
Fe 51.7135709672 8.6530844982 43.0975065644
Fe 53.1516707548 10.0826002566 44.5198409151
Fe 54.5466380463 8.5746995821 42.9969552199
Fe 56.0093624492 10.0485807914 44.4788300489
Fe 57.3792225622 11.5072379756 43.0067341079
Fe 1.3842521759 12.9216873063 44.5416806096
Fe 2.9252141279 11.4731890787 43.0702087473
Fe 4.3123623843 12.8755996093 44.4800860892
Fe 5.6900365921 11.4403878294 43.0637810194
Fe 7.161962859 12.9624475546 44.4947126212
Fe 8.6548480712 11.4453860348 43.0759985837
Fe 10.0381692788 12.9175269493 44.5169624409
Fe 11.5047991327 11.451560893 43.0829638387
Fe 12.9055686466 12.8870230755 44.4604025559
Fe 14.3743910668 11.5019827222 43.0320142987
Fe 15.7296872712 12.9289849627 44.4437316176
Fe 17.1736082897 11.4683995801 43.0772674386
Fe 18.6045267821 12.954337866 44.4540696655
Fe 20.1311030912 11.5174912018 43.0345243633
Fe 21.5575504884 12.8767776733 44.4821522078
Fe 22.9276711476 11.4429905077 43.0209577395
Fe 24.3987555577 12.8856913932 44.4845106571
Fe 25.8866028529 11.4965476392 42.9947453749
Fe 27.2134240298 12.9539321297 44.4365631639
Fe 28.7437883083 11.4822026629 43.0334597232
Fe 30.137884346 12.9408361987 44.4832048851
Fe 31.5437625636 11.5203644731 43.0588144821
Fe 32.9969322242 12.8906786954 44.5053461653
Fe 34.455409945 11.5002214142 43.039712557
Fe 35.8935756539 12.945068492 44.5106553194
Fe 37.3370330435 11.4850956313 43.049081634
Fe 38.7305118301 12.8599373653 44.5312657644
Fe 40.2246251279 11.4384376588 42.9994616341
Fe 41.6290618579 12.9034299676 44.5227922734
Fe 43.0891872122 11.4270787001 43.0094196682
Fe 44.4997400203 12.9131443811 44.5372663203
Fe 45.8675535162 11.4998771789 43.0550494266
Fe 47.347996256 12.8835707888 44.4441490719
Fe 48.783320036 11.4390906019 43.0043334579
Fe 50.1721171845 12.8871689865 44.4801692114
Fe 51.6520439458 11.443543945 43.0387852947
Fe 53.1120449597 12.8881159385 44.4669638426
Fe 54.5864786268 11.4725786885 43.0158491998
Fe 55.9322870817 12.9528264597 44.5425944016
Fe 0.0105298536 14.3112083827 43.0633948646
Fe 1.4019965415 15.7601647866 44.5106633741
Fe 2.9001523622 14.3373162643 43.0175566451
Fe 4.2877178168 15.7723016552 44.4523573187
Fe 5.7108093613 14.3391736236 43.0091017957
Fe 7.1720523679 15.7431977766 44.4971906634
Fe 8.6040946642 14.3747900831 43.0894865383
Fe 10.0800244407 15.7603856779 44.5289391183
Fe 11.4444204059 14.323321693 42.9988222981
Fe 12.9068065281 15.8039630921 44.5318884928
Fe 14.3611290796 14.3099542722 43.0319125798
Fe 15.8096151932 15.7956571121 44.4404625005
Fe 17.240900569 14.3571165516 42.9935875531
Fe 18.6836751697 15.7876973237 44.4566153477
Fe 20.0981887712 14.3033835714 43.0428106924
Fe 21.4780239195 15.8315307948 44.4436705139
Fe 22.9236530833 14.317037681 43.099242899
Fe 24.3857344565 15.8422009857 44.5323160603
Fe 25.8277226157 14.334723431 43.0507304292
Fe 27.2743425824 15.7283104674 44.5154658968
Fe 28.6491251037 14.3009327262 43.0044866052
Fe 30.1277418411 15.7419583097 44.4633203604
Fe 31.5888698224 14.3826034727 43.0927713899
Fe 33.037510573 15.7582355794 44.4305084363
Fe 34.4288043606 14.3770734362 43.0742839822
Fe 35.8803109718 15.7967809738 44.5012193449
Fe 37.272243633 14.3017073862 43.0676379289
Fe 38.7562312744 15.7377714668 44.4815613431
Fe 40.1323981107 14.3083298605 42.996845055
Fe 41.6433096489 15.7691099656 44.4439879738
Fe 43.02876255 14.3638174232 43.0605039008
Fe 44.5132619776 15.7330549478 44.4919315416
Fe 45.8849985012 14.3664341588 43.0586026739
Fe 47.3732701772 15.772286016 44.4484463691
Fe 48.7580330115 14.4059194869 43.0696669833
Fe 50.2237247984 15.8150329806 44.4936457538
Fe 51.6937387556 14.3461430917 42.996566837
Fe 53.093259088 15.752340071 44.4382897216
Fe 54.5772890164 14.3485611701 43.0303883583
Fe 55.9975840757 15.7910095381 44.5160586187
Fe 57.3528235797 17.1913983615 43.0499656409
Fe 1.4278863069 18.6405534896 44.4681340171
Fe 2.8722385263 17.1957068621 43.0957110578
Fe 4.3137961934 18.6587492092 44.4502296894
Fe 5.7292544583 17.253909937 43.0818377509
Fe 7.1262201609 18.622193995 44.4763767956
Fe 8.6064181289 17.2496749188 43.0430965212
Fe 10.0814018431 18.6295794368 44.4668365274
Fe 11.4681088542 17.2231824451 43.0182586356
Fe 12.8889657342 18.6266273404 44.4552390623
Fe 14.3067187597 17.1873213611 42.9971716461
Fe 15.7697727609 18.6393284569 44.4742692492
Fe 17.1977893467 17.2511184366 43.0499509532
Fe 18.6424506044 18.6960195311 44.5030591921
Fe 20.0724411198 17.2708913697 43.0384760344
Fe 21.5475440458 18.674740229 44.5046796191
Fe 22.9485823832 17.2308596428 43.0271179595
Fe 24.4131302107 18.7078099329 44.4983602733
Fe 25.8002157162 17.2571527918 43.074189152
Fe 27.2266730912 18.6570863549 44.5345142344
Fe 28.7512506667 17.2567273614 43.0791046444
Fe 30.0981645662 18.6368199319 44.4387118097
Fe 31.5248169565 17.1971241179 43.0284120055
Fe 33.03657738 18.6470724561 44.4674670192
Fe 34.391450635 17.2225687969 43.0126303433
Fe 35.9240849938 18.667021532 44.4307350334
Fe 37.2864561637 17.2714264919 43.0793595799
Fe 38.7635614768 18.6399287061 44.5407940858
Fe 40.2249069559 17.167380403 43.0091819391
Fe 41.5923487099 18.6396166341 44.4434217598
Fe 43.0514669049 17.170144945 43.0760260675
Fe 44.50285271 18.6342164501 44.5312530551
Fe 45.9488302589 17.2067200582 43.0312189051
Fe 47.3256191219 18.6469686155 44.5159116616
Fe 48.8034051524 17.2424852842 43.0701766448
Fe 50.2474177984 18.6715084598 44.5246140051
Fe 51.6635941427 17.2101904707 43.1012413617
Fe 53.1073281952 18.6406992544 44.5181356082
Fe 54.5444714122 17.1956701136 43.0099737434
Fe 55.9235378665 18.6016673962 44.5093437381
Fe 57.3743342976 20.0511934906 42.9959088117
Fe 1.4599551958 21.5085789486 44.4820460638
Fe 2.9153386138 20.080225636 43.0566689036
Fe 4.3072119023 21.5048701745 44.4295829061
Fe 5.6863352048 20.032451478 43.1068534242
Fe 7.1738747731 21.484191073 44.5223861538
Fe 8.5909438824 20.0606463356 43.0529410104
Fe 10.0045820528 21.5225893401 44.5097179719
Fe 11.4234260566 20.0549774751 43.0325375737
Fe 12.9548907961 21.5115724279 44.4898081384
Fe 14.3820163589 20.1012657769 43.0663215033
Fe 15.7892520047 21.5391325622 44.5142438859
Fe 17.2323228232 20.093615261 43.0140406699
Fe 18.6615160164 21.4990785713 44.4354363625
Fe 20.0975303965 20.1289260003 43.075801987
Fe 21.5421197982 21.4763935916 44.4838385788
Fe 22.9225280476 20.0754692177 43.008655477
Fe 24.374380892 21.5385975238 44.4850014051
Fe 25.8255924348 20.1469669373 43.0956839168
Fe 27.2892798042 21.4804834373 44.5410342343
Fe 28.6971185614 20.0463162631 43.0312504967
Fe 30.1671509815 21.4688066191 44.4932311709
Fe 31.5610198322 20.0962530589 43.0635785133
Fe 32.9488697862 21.5724305294 44.5257811728
Fe 34.4725825308 20.0675006068 43.0744793984
Fe 35.9070817559 21.5069735151 44.4415737277
Fe 37.2746067616 20.0574922368 43.0504679956
Fe 38.7932749168 21.4954310066 44.533033692
Fe 40.1823795085 20.0748545458 43.0617781386
Fe 41.5601189446 21.4696057198 44.4757054084
Fe 43.0128758969 20.1030459716 43.0098297127
Fe 44.5170807706 21.4760591083 44.4350607112
Fe 45.8758463451 20.0656262762 43.0488410392
Fe 47.3062716592 21.5801626301 44.4781761239
Fe 48.7703940295 20.1428108443 43.0366761382
Fe 50.1676924301 21.5600717558 44.5244482481
Fe 51.7021637057 20.1127938086 43.0547961384
Fe 53.0379832164 21.4921109725 44.5065769515
Fe 54.5056582148 20.1370503549 43.098752355
Fe 55.9726841374 21.5252983859 44.5399967791
Fe 0.0303746914 22.9788268558 43.0229932762
Fe 1.4675128386 24.3440474625 44.4626146055
Fe 2.8609007425 22.9880368498 43.0168885494
Fe 4.3044340542 24.3910416755 44.467585374
Fe 5.7672610693 22.9112337069 43.0415322398
Fe 7.1562198558 24.4239301496 44.4577723146
Fe 8.6653914733 22.9335875154 43.0641538397
Fe 10.0130398096 24.37031779 44.5030517496
Fe 11.5074279754 22.951244312 43.0642069713
Fe 12.8883396812 24.3377960818 44.5102372112
Fe 14.3665290288 22.9507647037 43.0253114152
Fe 15.7871551837 24.439348366 44.4674825365
Fe 17.2299316404 22.9827303937 43.0140528605
Fe 18.6652014334 24.3639830098 44.5248846057
Fe 20.1367347596 22.9406125676 43.0764085583
Fe 21.506894632 24.449617146 44.4822775228
Fe 22.9739648887 23.0038607988 43.0788375649
Fe 24.3559719846 24.4019816529 44.5349456315
Fe 25.8152565296 22.9107430486 43.0454445176
Fe 27.2753122733 24.4403826344 44.5392870944
Fe 28.6764927345 22.9975320113 43.0808566909
Fe 30.168200671 24.4469411841 44.4591096844
Fe 31.5305844587 22.9916724084 43.0947284745
Fe 32.9687775744 24.4372577838 44.5193089849
Fe 34.4717698599 22.9614196678 43.0281488992
Fe 35.9063858423 24.4222357201 44.4900243869
Fe 37.2801528462 22.919019855 43.0563015532
Fe 38.7881826702 24.4058199721 44.4761718793
Fe 40.1799516315 22.9861114988 43.0107499758
Fe 41.5602407878 24.4216418059 44.459444141
Fe 43.0834347506 22.9177891815 43.1055086686
Fe 44.4482270952 24.401893057 44.5280271447
Fe 45.9715577004 22.9451960871 43.0601701722
Fe 47.3927478273 24.4202682611 44.4991260586
Fe 48.7655823505 23.005785738 43.0817248378
Fe 50.2218601563 24.3552726414 44.4612633628
Fe 51.6417758333 22.9842806797 43.1074708051
Fe 53.1020494965 24.4318682118 44.4858499085
Fe 54.5279078855 23.0106700805 43.0316002314
Fe 55.962931802 24.3615560805 44.4654018891
Fe 0.0021111267 25.7791245023 43.0663168748
Fe 1.4388331835 27.2765053261 44.4854777652
Fe 2.9045047465 25.8399361872 43.0637475567
Fe 4.3013830828 27.2765097894 44.5122489006
Fe 5.7810465001 25.8414145303 43.0652107649
Fe 7.2175709906 27.2407418768 44.5233859338
Fe 8.6614429826 25.8332024559 43.1057221127
Fe 10.0172804596 27.2873050598 44.5425427004
Fe 11.4767172307 25.8794982388 43.0130792524
Fe 12.8802657038 27.3199833479 44.4897977896
Fe 14.3857299184 25.7821781038 43.0746484203
Fe 15.811770118 27.273949665 44.4429216856
Fe 17.2157735345 25.8303451238 43.0950267616
Fe 18.7013598287 27.2964675402 44.52900798
Fe 20.0551761652 25.7954425369 43.0520793998
Fe 21.5679657736 27.3162248193 44.531779654
Fe 22.9799365719 25.861088354 43.0590470083
Fe 24.3394162502 27.2573324477 44.4890661084
Fe 25.8324765569 25.8340422175 43.0360692343
Fe 27.2133636837 27.3177994047 44.4985436883
Fe 28.685163694 25.8089115316 43.0227633934
Fe 30.1418459547 27.2541297799 44.4799723325
Fe 31.5224697751 25.8537187789 43.0899442973
Fe 32.9959665559 27.3115076278 44.4561319669
Fe 34.4022455051 25.8766283406 43.0581233804
Fe 35.9153924035 27.2580862552 44.4750479149
Fe 37.339781065 25.8525029438 43.0230706221
Fe 38.7187758336 27.263712578 44.5194272991
Fe 40.1646886827 25.8369556731 43.049407177
Fe 41.561759042 27.2311981645 44.5065242608
Fe 43.0901898261 25.8179479438 43.0058656567
Fe 44.4430381944 27.2295292791 44.4281657665
Fe 45.9246397462 25.7861368855 43.0789503981
Fe 47.3736678027 27.2693133539 44.4416850513
Fe 48.8086008326 25.8519904609 43.0979243338
Fe 50.2546944532 27.285348875 44.5258513376
Fe 51.6900599768 25.8171949934 43.1006653384
Fe 53.0682289508 27.2368446116 44.4332049062
Fe 54.5498343183 25.8414501589 43.0325753775
Fe 56.0066352532 27.2930560168 44.5324032114
Fe 0.0288608333 28.681329992 43.0244816595
Fe 1.4761216762 30.1625672056 44.5321058708
Fe 2.9223445787 28.6439803395 43.0618949762
Fe 4.3397411553 30.1493811901 44.5214661816
Fe 5.7071206557 28.6586454384 43.0884896247
Fe 7.215992088 30.0936887131 44.5329246153
Fe 8.650048396 28.7017652681 43.0796813932
Fe 10.0298193221 30.0810284289 44.5150873964
Fe 11.4510967127 28.7162004311 43.0835111575
Fe 12.9053640702 30.1856729127 44.4690949923
Fe 14.2948074206 28.7027064177 43.0424820864
Fe 15.811089238 30.1200841977 44.4785502718
Fe 17.2020608391 28.6532970368 43.0076634245
Fe 18.6324618812 30.0980667877 44.5314775757
Fe 20.1276491947 28.6850660578 43.0864412399
Fe 21.4979536827 30.1594230766 44.5284854849
Fe 22.9368771246 28.6517713143 43.0063843264
Fe 24.4089402614 30.1868937663 44.5399669964
Fe 25.7961968218 28.6561978697 42.9987566146
Fe 27.260069639 30.1557470439 44.4627403786
Fe 28.7078088778 28.720080173 43.0492247912
Fe 30.1680992507 30.1834795346 44.4727439168
Fe 31.6018094547 28.6955029722 43.029423378
Fe 33.0488263226 30.1148736459 44.4861699544
Fe 34.3902510017 28.7369071677 42.9939940373
Fe 35.9029558451 30.1187742642 44.4737943733
Fe 37.3606899237 28.6866357442 43.0174507826
Fe 38.7839744627 30.092383909 44.4483126831
Fe 40.1534798419 28.6524574694 43.0912776607
Fe 41.658637715 30.0952026991 44.4517105221
Fe 43.0431384967 28.707508503 43.1024347904
Fe 44.5174088445 30.0894810167 44.5386232475
Fe 45.9640639302 28.69535979 43.0390363081
Fe 47.3504747503 30.1559744038 44.4924732729
Fe 48.8312158149 28.69054016 43.0474775768
Fe 50.211536137 30.1873827998 44.4404305678
Fe 51.6178200857 28.6493773115 43.0664194842
Fe 53.1023488494 30.1913967496 44.4790064661
Fe 54.4724611052 28.6646591525 43.0823791551
Fe 56.0222614082 30.1662198055 44.5344207071
Fe 0.016909162 31.5515168087 43.0996992402
Fe 1.458680923 33.0559019949 44.5314127987
Fe 2.8646751561 31.5271399051 43.054311762
Fe 4.3052016068 32.9874545555 44.5035514488
Fe 5.6923066937 31.5545045717 43.0962216286
Fe 7.2039190978 33.0464910046 44.5294509292
Fe 8.563912536 31.5307363906 43.0920820323
Fe 10.0059240542 33.0362124969 44.4316246089
Fe 11.5068569765 31.5425003161 43.0210825013
Fe 12.9578588436 32.9483689042 44.5310678889
Fe 14.2955393335 31.6244256119 43.0646684726
Fe 15.7980968251 33.0060209716 44.5142879286
Fe 17.2418969654 31.5954489555 43.0512332164
Fe 18.633787754 32.9643689909 44.4337375481
Fe 20.0378909144 31.5276720278 43.0902210977
Fe 21.4989645874 32.9782539404 44.5261117139
Fe 22.9968403573 31.5965105336 43.0845365387
Fe 24.3374317723 33.0628152851 44.4343553842
Fe 25.8769793201 31.6138457047 43.0091294904
Fe 27.2575995043 32.9948272541 44.4368650563
Fe 28.7191596553 31.6043688983 43.0913795159
Fe 30.107977038 32.9529273966 44.4630993337
Fe 31.5648988749 31.5470825727 42.9989303979
Fe 32.9539239201 33.0090805833 44.5397424961
Fe 34.3915760046 31.5860650223 43.019081708
Fe 35.8474749955 33.0032506482 44.4952588901
Fe 37.2797307763 31.5957135639 43.0655233332
Fe 38.7874309654 33.0410164047 44.4818703648
Fe 40.2285093271 31.625844333 43.0515815637
Fe 41.6400839629 32.9578583476 44.4852416703
Fe 43.1061898579 31.5800062865 43.0474128346
Fe 44.4716565369 32.9978654334 44.433625995
Fe 45.9123172234 31.6030970258 43.1067402892
Fe 47.3889890713 33.0427361436 44.4325410096
Fe 48.8025090663 31.5427020932 43.0775738338
Fe 50.2614081923 33.0045111636 44.4573263124
Fe 51.6306242062 31.5619112506 43.0460912758
Fe 53.0491162385 33.0395165012 44.4316231028
Fe 54.544382298 31.5227034915 43.0218331625
Fe 55.9411595731 33.0613004094 44.4953722957
Fe 57.3960293723 34.4425517668 43.0150213331
Fe 1.4441198276 35.8370221205 44.5036170322
Fe 2.9050221926 34.4296294166 43.0269748504
Fe 4.2778895766 35.8365145063 44.5129068236
Fe 5.6891030044 34.4360697838 43.0939697441
Fe 7.1781878755 35.8356900703 44.4706896366
Fe 8.568819808 34.3906751773 43.0546877488
Fe 10.0169601772 35.9145305682 44.4976609057
Fe 11.5149957288 34.4032039879 43.0808472355
Fe 12.944416389 35.9088773539 44.4530250758
Fe 14.364327664 34.4357948696 43.0185927846
Fe 15.7705543484 35.834411051 44.4875021793
Fe 17.2340185916 34.4310691885 43.0004094335
Fe 18.6853495872 35.9047099103 44.5152381806
Fe 20.0725293106 34.4120027897 43.091917056
Fe 21.5143744745 35.835187882 44.4762757517
Fe 22.9613394844 34.4097643507 43.0813723764
Fe 24.4422033143 35.871490273 44.5323546564
Fe 25.8743493744 34.4111154539 43.0415730264
Fe 27.2873196912 35.8229859845 44.5007190421
Fe 28.723069295 34.4049655585 43.1056534931
Fe 30.1753689565 35.8398672731 44.4358638893
Fe 31.5438169284 34.4397744841 43.0148926297
Fe 32.9887954499 35.868090234 44.483815212
Fe 34.4240440993 34.4082353758 43.0250542976
Fe 35.8460999739 35.8356656467 44.5396973206
Fe 37.2781026123 34.4453074621 42.9980143438
Fe 38.7692162678 35.8995093364 44.4552607058
Fe 40.1416745147 34.389277431 43.0037310663
Fe 41.5944996156 35.8721255976 44.4678353098
Fe 42.9996275776 34.4672689209 42.9985649065
Fe 44.4625737647 35.8515313279 44.5381934296
Fe 45.9206418269 34.4350394941 43.0623245944
Fe 47.334910305 35.8305477814 44.4592757517
Fe 48.7776602654 34.4175451276 43.0689118049
Fe 50.2476561289 35.8710694364 44.4781782108
Fe 51.6112374954 34.4487074186 43.088864048
Fe 53.0733850596 35.8299073852 44.4981339001
Fe 54.4890416238 34.4030519218 43.0991761987
Fe 55.9219650256 35.8750662723 44.472812247
Fe 57.3756115432 37.3611725458 42.9979620858
Fe 1.4068322377 38.7319557557 44.4419444879
Fe 2.8268242704 37.2958591052 43.0127949964
Fe 4.2555695787 38.6902971072 44.4283881335
Fe 5.6912767877 37.2808077217 43.0750064761
Fe 7.1485917597 38.7728906759 44.4555165531
Fe 8.6609024418 37.2964610392 43.0035148582
Fe 10.0412110075 38.7938081153 44.4278328975
Fe 11.5128115928 37.312020711 43.0057543548
Fe 12.9424959065 38.7421754397 44.4658482778
Fe 14.3223557408 37.264103056 43.0962932735
Fe 15.7982326931 38.7671194938 44.500031049
Fe 17.1859572443 37.3306981541 43.0899637741
Fe 18.676151943 38.7242003858 44.456656155
Fe 20.11430021 37.3385897479 43.061262409
Fe 21.5052339831 38.8006727306 44.5271284535
Fe 22.9855546231 37.3193594879 43.0511488077
Fe 24.4123559526 38.7523937166 44.4812293089
Fe 25.7780918179 37.2936785603 43.1053138214
Fe 27.2183672862 38.7472195696 44.4470342737
Fe 28.7123455248 37.3549494017 43.021381052
Fe 30.0817335528 38.6948785185 44.4312660544
Fe 31.5959498132 37.3229890124 43.0758651783
Fe 33.0235035632 38.7063769844 44.5010264493
Fe 34.4647524835 37.2535940127 42.9928690231
Fe 35.8738623977 38.7256996856 44.5342648183
Fe 37.2872051918 37.3540045333 43.0521298038
Fe 38.7360932467 38.7032459502 44.5380899037
Fe 40.2093599643 37.3529757549 43.056529849
Fe 41.6443467829 38.7905442979 44.4436068444
Fe 43.0480238486 37.3397221068 43.0977405217
Fe 44.5275183218 38.7148240321 44.4754098699
Fe 45.9743360449 37.2542631918 43.0203490256
Fe 47.358032828 38.7918352532 44.4490470385
Fe 48.8162308838 37.2620779808 42.9974690269
Fe 50.2571335039 38.7238679925 44.4612277181
Fe 51.6961863258 37.2622657099 43.028154539
Fe 53.1334592579 38.7379035882 44.4579648627
Fe 54.5479242703 37.3535631376 43.0761135577
Fe 55.9705627488 38.7850795221 44.4975617335
Fe 0.0068954785 40.1805023957 42.9972629938
Fe 1.3816424615 41.5953567084 44.5292700424
Fe 2.8623004274 40.1391448414 43.0417146507
Fe 4.275851984 41.6237316868 44.429588566
Fe 5.7915550335 40.2012026354 43.0980628948
Fe 7.198178034 41.61212437 44.4925684557
Fe 8.6586454246 40.2362018983 43.0601819016
Fe 10.0062809385 41.6530403469 44.435684192
Fe 11.5116846717 40.1745532725 43.0597755673
Fe 12.9057700312 41.6414881163 44.4612076758
Fe 14.389469605 40.1283783776 43.0468131084
Fe 15.7883745399 41.6270076949 44.5337169295
Fe 17.2727644851 40.1596898584 43.0364377351
Fe 18.7127188174 41.5944191632 44.4861384062
Fe 20.0560673458 40.162974992 42.9951372503
Fe 21.5513104264 41.6132543511 44.4410215026
Fe 22.9753393997 40.1903610021 43.053348191
Fe 24.3613210796 41.5829348604 44.4563462065
Fe 25.8272855147 40.2136290033 43.0620033715
Fe 27.2893361211 41.6578536661 44.4630434989
Fe 28.6527910213 40.192793145 43.0735362939
Fe 30.0819409674 41.654504341 44.4660937396
Fe 31.5223363157 40.14341387 43.001666678
Fe 33.0428560393 41.6505287339 44.5279633839
Fe 34.4281945885 40.1521109899 43.1001643807
Fe 35.8182638232 41.6679166368 44.456135056
Fe 37.3265950284 40.1725283652 43.0491417773
Fe 38.7083436189 41.6547258666 44.5189640729
Fe 40.1739899746 40.1262005907 43.0203839483
Fe 41.6619565419 41.6644387658 44.5211227516
Fe 43.0730820452 40.1252887888 43.035920474
Fe 44.4940976455 41.6711204245 44.4820307949
Fe 45.9214935434 40.2334570374 43.0409651372
Fe 47.406787162 41.5648450586 44.515565168
Fe 48.8318193871 40.2371790289 43.020790093
Fe 50.2275432104 41.5867222983 44.5286316524
Fe 51.6036876991 40.1459896705 43.0912310584
Fe 53.0546338762 41.6333213357 44.473446613
Fe 54.5204968853 40.2142540945 43.0576063627
Fe 55.9896583535 41.6521346406 44.5229380211
Fe 57.3862697745 43.0159756443 43.0182878797
Fe 1.4239463637 44.4443520816 44.4945051222
Fe 2.9091770952 43.0241397678 43.077818948
Fe 4.2530326428 44.4386459017 44.5364713657
Fe 5.6856097221 43.0925692682 43.0093352413
Fe 7.2199104471 44.4925139785 44.4874711665
Fe 8.6624664145 43.0866796991 43.0640747935
Fe 10.0839229065 44.538351099 44.5066778565
Fe 11.5365508142 43.0535238338 43.0272134435
Fe 12.9680068221 44.5418736941 44.4276885088
Fe 14.3746557886 43.033509232 43.094471093
Fe 15.8377834938 44.4293524052 44.4650287218
Fe 17.2338389773 43.0424324903 43.1068551769
Fe 18.6772382006 44.4353238093 44.4851964492
Fe 20.0447307087 43.0787701036 43.0183112306
Fe 21.4675775117 44.457141231 44.4640445348
Fe 23.0122468159 43.0565698062 43.0464020005
Fe 24.4425401156 44.4425054072 44.4392045843
Fe 25.8062442287 43.0327969041 43.0074550269
Fe 27.2729867138 44.5153392466 44.4699752514
Fe 28.7471450246 43.0715690468 43.079619897
Fe 30.1011493504 44.5083504296 44.4948533295
Fe 31.6076309702 43.0281632381 43.0615974835
Fe 32.9762694379 44.4385380342 44.4959551093
Fe 34.4917484925 43.0755623004 43.0487136024
Fe 35.9202607323 44.5270050203 44.4806859182
Fe 37.3193724555 43.068899342 43.0171455724
Fe 38.7829459535 44.4721682279 44.4863706797
Fe 40.1382640286 43.0996812405 43.0604171811
Fe 41.5694922209 44.4529569107 44.4788990858
Fe 43.0420089475 43.0334233828 43.0947803557
Fe 44.4507481573 44.4967425923 44.4977561227
Fe 45.9274329845 43.0514124552 43.091007858
Fe 47.3279918262 44.4617050933 44.5097048239
Fe 48.8383900288 43.098578372 43.0710596344
Fe 50.2567830851 44.5197069218 44.4678999804
Fe 51.695411255 43.037473348 43.0859712099
Fe 53.0511302224 44.4644518438 44.5172948828
Fe 54.5591399372 43.0164128266 43.0523499694
Fe 56.0107990358 44.4556353519 44.5010552981
Fe 57.3461639907 45.8998368305 43.056390255
Fe 1.4504175312 47.2975319506 44.5038973499
Fe 2.8664080385 45.8875707628 43.0964099736
Fe 4.3537504112 47.3388828059 44.525156067
Fe 5.7308180044 45.8677931791 43.0284991242
Fe 7.1971668417 47.3864140582 44.492261796
Fe 8.5879494587 45.969607265 43.0428221845
Fe 10.0642118463 47.3884691112 44.4365991446
Fe 11.4253415345 45.8953602373 43.0984741627
Fe 12.8690345297 47.3482785921 44.5123620516
Fe 14.3945284971 45.939768435 43.0711250727
Fe 15.8200244427 47.3361398955 44.4425199442
Fe 17.2303118182 45.8983419517 43.0361203976
Fe 18.6587720004 47.4072813754 44.4776391821
Fe 20.0454698847 45.8725512835 43.0273992607
Fe 21.5344232591 47.4006800593 44.465181477
Fe 22.9196881906 45.9264887958 43.0769301583
Fe 24.4279949007 47.3408969038 44.4848809912
Fe 25.8747919174 45.9369171067 43.0753287857
Fe 27.3070086803 47.3052104625 44.5291065054
Fe 28.6429850188 45.9157359555 43.0346055455
Fe 30.1569493023 47.3761672161 44.5101985471
Fe 31.6157838683 45.9573069403 43.0987917007
Fe 33.0281553571 47.4114706281 44.4575894063
Fe 34.4702649207 45.8772473635 43.0404372655
Fe 35.8525916531 47.3322185157 44.4537838208
Fe 37.3436426237 45.8726804183 43.0240632536
Fe 38.7211864544 47.3525368604 44.4532176938
Fe 40.2001108337 45.9688701489 43.0499765293
Fe 41.5754339307 47.365814559 44.4843922471
Fe 43.0662335499 45.937684605 43.0296187186
Fe 44.4702564526 47.3217143597 44.4643919677
Fe 45.9706787506 45.9622281982 43.0563326395
Fe 47.3464024433 47.3162208675 44.428978788
Fe 48.7499012304 45.9251735193 43.0930240482
Fe 50.2370418588 47.3538872652 44.4978478594
Fe 51.709523298 45.8890024136 43.0315138588
Fe 53.0908267573 47.2993820861 44.5405842041
Fe 54.5696397215 45.8967811986 43.0225302683
Fe 56.008788275 47.3653698961 44.460266715
Fe 57.3986460758 48.8164277131 43.0118631235
Fe 1.4898122963 50.2600367203 44.4887623829
Fe 2.8938272678 48.7486617684 42.9928698999
Fe 4.3494498167 50.2012031112 44.4807678162
Fe 5.789712189 48.7577350868 42.9987486579
Fe 7.1431007777 50.1970507942 44.5160942861
Fe 8.6342768547 48.799481419 43.0084784636
Fe 10.0647957104 50.2459715164 44.537919877
Fe 11.4620717855 48.7485519038 43.0809250117
Fe 12.8848535282 50.198468077 44.4498779928
Fe 14.3216428479 48.8308488542 43.0952137599
Fe 15.793987239 50.2752886475 44.5073120749
Fe 17.2176526406 48.7332360462 43.0584949241
Fe 18.6024403586 50.2542465001 44.496944696
Fe 20.0643894866 48.7904856226 43.006424027
Fe 21.557305884 50.2493258043 44.5258961302
Fe 23.0165213121 48.8350782284 43.0538474841
Fe 24.4230473317 50.2559259472 44.5308252966
Fe 25.8806837427 48.8087542392 43.001955408
Fe 27.3049742319 50.1957367996 44.540292084
Fe 28.7187201038 48.8023208855 43.0775494536
Fe 30.0808534867 50.2347733687 44.5157452272
Fe 31.5898849523 48.8089808739 43.106879263
Fe 32.9660305482 50.2755316149 44.4459719959
Fe 34.4872918405 48.8130894018 42.9941105503
Fe 35.8787208133 50.2368228993 44.4598456396
Fe 37.3596661915 48.8352607236 43.0942034053
Fe 38.7916993012 50.256907897 44.4644404971
Fe 40.1749714991 48.7461810057 43.0585864427
Fe 41.5912701547 50.267472139 44.4397914842
Fe 43.080589113 48.7888429202 43.099328249
Fe 44.4516328352 50.2645023798 44.479418734
Fe 45.8857609569 48.8076397118 43.0341117268
Fe 47.3411849644 50.2670309618 44.5391878829
Fe 48.7971768293 48.7442492483 43.0025089163
Fe 50.1713836132 50.2138986596 44.4885867167
Fe 51.6405170835 48.7576203584 43.0644889043
Fe 53.1111471439 50.241938763 44.536498779
Fe 54.5189085264 48.7875122185 43.0007239915
Fe 55.9852107571 50.2754359759 44.4875084936
Fe 0.0360211937 51.6366345273 43.0438428492
Fe 1.4707548334 53.1009116848 44.4740008907
Fe 2.9056589619 51.7178507865 43.0775532429
Fe 4.2593304307 53.042594769 44.4556815748
Fe 5.7602703829 51.6052765431 43.0446853442
Fe 7.1891068878 53.074487449 44.486325377
Fe 8.6521232106 51.7113701714 43.0448595945
Fe 10.0059093758 53.0389011209 44.5350916533
Fe 11.4844380334 51.6817164042 43.0279571548
Fe 12.9631452134 53.0491591938 44.5340106419
Fe 14.3798789953 51.6974196056 43.0741392775
Fe 15.7686364522 53.1483404278 44.4735007322
Fe 17.1852701635 51.6937418937 43.0912759478
Fe 18.6529903649 53.0761237829 44.4921453972
Fe 20.0630935998 51.6431507638 43.0810369002
Fe 21.4959219265 53.0599713041 44.5389612943
Fe 22.9566332531 51.6385397976 43.0108024331
Fe 24.360451488 53.087018667 44.4805765926
Fe 25.779297559 51.6830429928 43.0066847095
Fe 27.3205095716 53.1191305283 44.5209723901
Fe 28.7204067001 51.6189200974 43.065536396
Fe 30.1243298332 53.0725029696 44.4678095953
Fe 31.6007398904 51.6413353957 43.0740621449
Fe 33.0011532989 53.0399488368 44.5205205194
Fe 34.4863504612 51.7072338219 43.0114291045
Fe 35.8964486384 53.0572155983 44.4790207761
Fe 37.2704202628 51.6859617372 43.0801665399
Fe 38.7631805325 53.0894730853 44.4843647852
Fe 40.1543710513 51.6290590391 43.1046451822
Fe 41.5817683898 53.1521024816 44.4809363102
Fe 43.0841135537 51.6368617899 43.0848915295
Fe 44.4635966782 53.097978238 44.5227778456
Fe 45.9639491219 51.6612802081 43.0897729559
Fe 47.3273100483 53.108489481 44.5167555461
Fe 48.7790896537 51.6232463452 43.0068141212
Fe 50.1951322826 53.0755685429 44.5150311424
Fe 51.630275972 51.6664408275 43.0752208011
Fe 53.080797544 53.1321662516 44.5235143263
Fe 54.5088373643 51.6392428517 43.0359217544
Fe 55.916885986 53.0511372569 44.4842987785
Fe 57.3846423688 54.5324642591 43.0204269202
Fe 1.3849256632 55.9143433889 44.5182672519
Fe 2.9085611089 54.5468585913 43.0267576649
Fe 4.346724695 55.9548267529 44.5238958517
Fe 5.7723887651 54.4861884882 43.099832666
Fe 7.121089899 55.972862073 44.5416757681
Fe 8.5539330582 54.5041973032 43.0937557164
Fe 10.0662361863 55.9325180231 44.4493375729
Fe 11.4589600036 54.490057818 43.0837039029
Fe 12.9475569379 55.9645578854 44.4771945077
Fe 14.3349277484 54.586087837 43.0457811353
Fe 15.7357668286 55.9457446835 44.4999588474
Fe 17.2557195553 54.5022974292 43.0714021323
Fe 18.597660656 56.0046179536 44.4647897456
Fe 20.0906143641 54.4880876417 43.0470670924
Fe 21.5143267908 55.9366011832 44.5290452468
Fe 22.9635666086 54.5136236595 42.9981246119
Fe 24.4114495075 55.9319163323 44.4564316902
Fe 25.7842839075 54.5349320233 43.0295200053
Fe 27.2280954184 55.9591879847 44.4920827372
Fe 28.7561709328 54.4848999151 43.0966557179
Fe 30.1558983887 55.9536789526 44.4899477344
Fe 31.6276954524 54.5621964113 43.0201090507
Fe 32.9897934398 55.9808630263 44.4740719914
Fe 34.3974807449 54.4727936158 43.0491646048
Fe 35.8628151401 55.9737635328 44.485313817
Fe 37.363369992 54.5548301542 43.1003918142
Fe 38.744791363 55.9724676673 44.5263153766
Fe 40.1569562117 54.5316628085 43.0912382225
Fe 41.568281096 56.019997195 44.4686616466
Fe 43.0769229033 54.578562636 43.0256247528
Fe 44.5036095392 55.9683317228 44.5236732485
Fe 45.8673444175 54.5065410593 43.0968925021
Fe 47.3302611584 55.9684916989 44.4943309521
Fe 48.7979365269 54.4816465089 43.0675141067
Fe 50.1715900014 55.9432850084 44.4799112569
Fe 51.6493597103 54.5178991868 43.0587618428
Fe 53.0863793921 55.9705140842 44.5396937518
Fe 54.5016029021 54.5139542932 43.0756645526
Fe 55.9369562433 55.9135790786 44.5223122754
Fe 57.3642225345 0.0041839616 45.9390839411
Fe 1.4883037639 1.4693169712 47.4064240878
Fe 2.9089503126 57.3931300089 45.9416318303
Fe 4.2843746085 1.4794411716 47.395968979
Fe 5.7250763452 57.3567826512 45.9417558511
Fe 7.1822623965 1.3856443803 47.338239549
Fe 8.6375588779 0.012163774 45.9517554975
Fe 10.0603444977 1.4222834656 47.3696585587
Fe 11.501457705 0.0022024512 45.8709173407
Fe 12.9605477249 1.3925279624 47.3560160137
Fe 14.2976212608 0.0121014968 45.9533887351
Fe 15.7818233907 1.3856830019 47.3640277959
Fe 17.2151888632 57.3981330011 45.9083087959
Fe 18.6573431599 1.4527009613 47.3157676519
Fe 20.1322567214 57.3801195364 45.9614506861
Fe 21.5346032927 1.4393939985 47.3413086614
Fe 22.9975316536 9.71506094e-04 45.9615420308
Fe 24.4156901471 1.4924234286 47.4077473566
Fe 25.8006647777 0.0090456753 45.9240087211
Fe 27.2183956943 1.4192297396 47.3286454435
Fe 28.703611907 0.0052045196 45.9083748465
Fe 30.132426777 1.4394467367 47.3249236765
Fe 31.557677259 57.3443752101 45.8778818682
Fe 33.0273463519 1.3780941675 47.3410168153
Fe 34.3902021315 57.3830262865 45.9304874022
Fe 35.8540038453 1.4571888583 47.3672417179
Fe 37.3496474083 57.3755011942 45.9209568277
Fe 38.7160567191 1.4258468295 47.3804685527
Fe 40.1902526569 57.3975270069 45.9078594959
Fe 41.6108493842 1.4264374671 47.3182134535
Fe 43.0314049389 57.3518032232 45.9718899825
Fe 44.4814506633 1.4704330295 47.3396192249
Fe 45.9143414076 0.0365457697 45.9150125326
Fe 47.3313811772 1.4539797266 47.3254158817
Fe 48.7843529188 57.3438971643 45.8937949552
Fe 50.2233734251 1.392922565 47.3325234825
Fe 51.6423238418 0.0246735143 45.8792678302
Fe 53.0703218742 1.4509494667 47.3633694654
Fe 54.5714796274 57.3491366785 45.9239205206
Fe 55.9471796888 1.4432831964 47.3925963217
Fe 57.3585094274 2.9183182016 45.9534837751
Fe 1.3806938996 4.3193001639 47.3079378943
Fe 2.8950344694 2.8718742537 45.8799943873
Fe 4.3014415774 4.2857654478 47.3272852296
Fe 5.7399209558 2.900792991 45.9283480564
Fe 7.226069311 4.3607971182 47.3306919826
Fe 8.581940046 2.8218859914 45.9104476202
Fe 10.0835340061 4.3390618123 47.3145727476
Fe 11.4921729243 2.9026575518 45.9296434445
Fe 12.9353152987 4.2986372452 47.3998142752
Fe 14.3322090275 2.8648472754 45.8700009133
Fe 15.8294046284 4.2752322645 47.3970242292
Fe 17.2561483161 2.8472040928 45.8854824042
Fe 18.6746706237 4.2907951065 47.3069429788
Fe 20.0371889953 2.9047403706 45.9149321246
Fe 21.5807608993 4.3587416391 47.3448765395
Fe 23.0048819075 2.8815600557 45.9331394189
Fe 24.40079894 4.3527637212 47.3144295312
Fe 25.7858723255 2.8231193064 45.9705188226
Fe 27.2124433875 4.2592828942 47.3912364932
Fe 28.6944345854 2.901243176 45.8700978964
Fe 30.1244177028 4.3177259703 47.3008423601
Fe 31.5648293517 2.8759085434 45.9083720623
Fe 33.036667089 4.3549699631 47.3686681398
Fe 34.4330656604 2.9215365654 45.8689543993
Fe 35.9165734657 4.3333916162 47.4036444406
Fe 37.2686652314 2.9114297451 45.9768336695
Fe 38.7532172843 4.3281845089 47.3932468832
Fe 40.1946179243 2.9146799261 45.9668743938
Fe 41.6433386957 4.3331427586 47.3910863995
Fe 43.0148612448 2.9110619509 45.9083414308
Fe 44.5001049425 4.3310322243 47.327829072
Fe 45.9690538017 2.8490331768 45.955675676
Fe 47.308933753 4.3384414746 47.4042530954
Fe 48.7618831213 2.9019527254 45.9172214699
Fe 50.256551803 4.3172063106 47.4109064994
Fe 51.6886070114 2.8743560925 45.8757624392
Fe 53.0545931565 4.3268992247 47.3310631965
Fe 54.4780753475 2.8889275687 45.973702011
Fe 55.9756463785 4.3101636826 47.3895307224
Fe 0.0065504686 5.7150210286 45.9338685467
Fe 1.4634361777 7.2160321189 47.3278196666
Fe 2.8782912913 5.6936924535 45.9124503399
Fe 4.3225854269 7.2044839942 47.3598717374
Fe 5.7521036807 5.7897435884 45.8894432548
Fe 7.1689800283 7.2058172446 47.3394874304
Fe 8.5604600413 5.6825736901 45.9017220505
Fe 9.9977887344 7.1842588116 47.3613017938
Fe 11.4732718039 5.7226320002 45.9005922922
Fe 12.8862653165 7.1679786198 47.3285564043
Fe 14.3239115331 5.7544625231 45.9696940726
Fe 15.8183080623 7.1456259102 47.3088649843
Fe 17.232277358 5.7342906381 45.877905478
Fe 18.6994199611 7.2129885081 47.3646411291
Fe 20.1387955103 5.7699049432 45.9739127478
Fe 21.4898582902 7.1869893013 47.358056588
Fe 22.9526703274 5.7714436738 45.9525492201
Fe 24.381702498 7.131162032 47.3712513968
Fe 25.811270377 5.7780243417 45.899993281
Fe 27.2508836197 7.1972291579 47.3224875613
Fe 28.6711182611 5.7488954603 45.9694110611
Fe 30.0776620059 7.1778112343 47.3695433459
Fe 31.5427176302 5.7013519924 45.8908857344
Fe 33.0280530562 7.190867305 47.3972210092
Fe 34.4478872801 5.7013115626 45.9520407257
Fe 35.8512841197 7.1524398838 47.3369504029
Fe 37.3067024988 5.7659133193 45.9695248905
Fe 38.736216806 7.2169926205 47.3823526293
Fe 40.222541771 5.7382995098 45.8750728329
Fe 41.5716651711 7.148971237 47.315642721
Fe 43.0296407091 5.7715261701 45.9002283531
Fe 44.4684674732 7.2295853849 47.3576703552
Fe 45.9031760748 5.7698227742 45.9284432962
Fe 47.3231360504 7.1466121529 47.3870158395
Fe 48.7422086516 5.78340232 45.8649446626
Fe 50.2669911974 7.1773730891 47.3937117681
Fe 51.6700153568 5.760861454 45.9611480154
Fe 53.0950271384 7.2030277663 47.3073692072
Fe 54.5055614104 5.7536546644 45.9340219873
Fe 55.9908765227 7.2005604882 47.3571649556
Fe 57.3979340997 8.610872881 45.9664130867
Fe 1.4328350037 10.0295392655 47.3050235948
Fe 2.9100976048 8.647002734 45.8969020531
Fe 4.2771344768 10.0743451422 47.3722799472
Fe 5.6978230193 8.6536245155 45.8766240737
Fe 7.1805332085 10.0580052018 47.3125921188
Fe 8.6605925106 8.5787769291 45.9624168685
Fe 10.0524661038 10.0036830244 47.3085039719
Fe 11.4770407498 8.5639695885 45.9331432025
Fe 12.8728953547 9.9963660206 47.3652746074
Fe 14.3286642633 8.589336337 45.8769006037
Fe 15.8168641657 10.0307698754 47.3985797379
Fe 17.2266317059 8.583086228 45.9688733421
Fe 18.6108827723 9.9897431714 47.3000920227
Fe 20.058118074 8.6294304854 45.9434711771
Fe 21.4814453515 9.9909371998 47.3226192611
Fe 22.9351889843 8.5622333261 45.9314772938
Fe 24.4430716363 10.0808206833 47.3247873186
Fe 25.8494015976 8.5972803644 45.954439158
Fe 27.2834944752 10.1025943814 47.3497259962
Fe 28.7037954923 8.6047535007 45.9612459097
Fe 30.1332988191 10.0730446758 47.2996415949
Fe 31.5685781011 8.6267030385 45.926776666
Fe 32.9677284726 10.0397417729 47.3428194559
Fe 34.4035253507 8.5580277071 45.900924032
Fe 35.8869858794 10.0282388191 47.3350847189
Fe 37.2928564415 8.6288203987 45.9018588961
Fe 38.7116904498 10.0051876496 47.3910146557
Fe 40.2087727751 8.6309257152 45.9106507462
Fe 41.625472009 10.0424893406 47.3618631298
Fe 43.0406724052 8.6358532771 45.93372271
Fe 44.4986559541 10.0301947471 47.3518280305
Fe 45.9135914581 8.589115914 45.8696974728
Fe 47.4104263185 9.991589356 47.3501344247
Fe 48.7602167296 8.6475198058 45.8745005488
Fe 50.2077786276 9.9959183104 47.3612155784
Fe 51.6060993602 8.6150506237 45.9088222453
Fe 53.0769842736 10.0086025408 47.3833599414
Fe 54.5624986288 8.5670576121 45.9261777111
Fe 55.9639290263 10.0621887827 47.3086744153
Fe 57.3993408334 11.4985631752 45.8829118837
Fe 1.4397764515 12.8993409175 47.3066630613
Fe 2.9087821054 11.4568924165 45.9643852396
Fe 4.3161282094 12.9284788901 47.3888655466
Fe 5.7317374843 11.4438933741 45.8712043353
Fe 7.2005958975 12.860573503 47.3296198315
Fe 8.5564816254 11.5223927887 45.8805807978
Fe 10.0390880962 12.9174864553 47.3114067601
Fe 11.4755890497 11.438833966 45.9214223769
Fe 12.9209325302 12.8647416903 47.2989645399
Fe 14.3767334313 11.4821287546 45.9165961151
Fe 15.7593591405 12.9093751154 47.4019251562
Fe 17.1783234549 11.4660852584 45.9722712536
Fe 18.6696547526 12.880917669 47.3791933338
Fe 20.0851508762 11.4551503721 45.9580466471
Fe 21.5454358939 12.9092166528 47.3292045471
Fe 22.9470633624 11.4320838842 45.9335823911
Fe 24.3922645511 12.8790307384 47.3604944651
Fe 25.7953485796 11.4304944954 45.935483985
Fe 27.3225109436 12.8574711586 47.3208701536
Fe 28.6644484286 11.4691617604 45.8858510622
Fe 30.1067527505 12.885157123 47.4025318158
Fe 31.5405365398 11.4582915929 45.950672472
Fe 33.0472418672 12.8602530375 47.359303398
Fe 34.4789583907 11.4291207815 45.9017458004
Fe 35.8865821616 12.9169178702 47.3385502688
Fe 37.3580979854 11.439760318 45.9251339865
Fe 38.7628961119 12.8691758079 47.3119771226
Fe 40.1452365206 11.4815048768 45.9231774535
Fe 41.6070828934 12.9003625459 47.4017225207
Fe 43.1020840073 11.5283647566 45.870256869
Fe 44.4351841204 12.9168210512 47.3323992239
Fe 45.9678416467 11.4276004804 45.9358014734
Fe 47.3508044569 12.9109028204 47.4100870607
Fe 48.7371907738 11.4860408327 45.9710986413
Fe 50.194336345 12.9125061813 47.3037712742
Fe 51.6596643347 11.4274635393 45.9604295297
Fe 53.0399505495 12.8998852922 47.3623749441
Fe 54.5633176687 11.4277070806 45.888483509
Fe 56.0226895798 12.967868486 47.3870597494
Fe 0.0495977141 14.3534602935 45.8817123196
Fe 1.4315461904 15.7594167789 47.4071872715
Fe 2.8572886282 14.3759681665 45.8794327614
Fe 4.2986927497 15.790330392 47.3198067031
Fe 5.7109551094 14.4036148195 45.9281168539
Fe 7.1308253812 15.7603686404 47.345671656
Fe 8.6609175381 14.3795854829 45.8889312556
Fe 10.0961953905 15.7948545002 47.3776997909
Fe 11.496726783 14.3562759046 45.9553860788
Fe 12.9710184339 15.7364961791 47.4048392847
Fe 14.3605765643 14.3422471807 45.9283896131
Fe 15.7640610239 15.8310967245 47.3645281721
Fe 17.2151530759 14.3004400394 45.9532097275
Fe 18.6086978606 15.7880488229 47.3677853295
Fe 20.0981170831 14.3339464559 45.9467391285
Fe 21.5639444767 15.8396510061 47.3663632233
Fe 22.91990781 14.2979794228 45.901756122
Fe 24.3613185921 15.8167137369 47.3076083931
Fe 25.8122425178 14.4012878259 45.9115322524
Fe 27.2422627144 15.7507035189 47.335265717
Fe 28.7436705664 14.3448867914 45.8919441531
Fe 30.1646498148 15.8404749574 47.3397976012
Fe 31.5617419949 14.3761520554 45.8705105047
Fe 33.0125783911 15.7774829723 47.3469241512
Fe 34.4868922975 14.3736270114 45.8745236202
Fe 35.9153246658 15.8243230084 47.4025223995
Fe 37.2879594802 14.3995564863 45.88945925
Fe 38.7482793115 15.7652928124 47.4102068882
Fe 40.1381604909 14.301989165 45.9737869636
Fe 41.6416325026 15.8201447229 47.3568919227
Fe 43.0673888546 14.3644410329 45.951414169
Fe 44.4945153444 15.7717199225 47.3397138537
Fe 45.9200580758 14.3107128214 45.8855469908
Fe 47.4094682471 15.7293742824 47.3120899663
Fe 48.7648546734 14.3127592476 45.9765166189
Fe 50.2391407663 15.7431896584 47.303515169
Fe 51.602856436 14.3740321952 45.9620777733
Fe 53.0488441013 15.7475707751 47.409080418
Fe 54.4855944805 14.3685740309 45.8747208707
Fe 55.9988512271 15.7913091306 47.3226707762
Fe 57.3460815942 17.1630898262 45.9582912377
Fe 1.4337855588 18.7107281294 47.3043956638
Fe 2.8451585494 17.1986169325 45.8636325743
Fe 4.3583563352 18.6774909695 47.4018915757
Fe 5.7502882207 17.2185525363 45.8842664336
Fe 7.1986429358 18.6281466372 47.3387288325
Fe 8.57535723 17.1625119947 45.9033490374
Fe 10.0612618005 18.6710145704 47.3725850907
Fe 11.4406010952 17.2366848641 45.9530596028
Fe 12.9688012112 18.6567357628 47.3136358231
Fe 14.3225086216 17.2082539915 45.8948759057
Fe 15.7563415726 18.6496185771 47.3997679424
Fe 17.183036801 17.1737161193 45.9577454185
Fe 18.661195685 18.6202917816 47.369077223
Fe 20.1166618084 17.261148331 45.96766735
Fe 21.5778662272 18.6571357595 47.3004020048
Fe 22.9678104326 17.1885798335 45.8633437193
Fe 24.4338963172 18.7082993781 47.4027328304
Fe 25.8354092608 17.2237037664 45.9725895535
Fe 27.2164262281 18.6338229997 47.2986098134
Fe 28.6829641335 17.195301736 45.9344251048
Fe 30.155280461 18.6026113692 47.3294776261
Fe 31.5415435052 17.163889382 45.9523075296
Fe 32.9941778663 18.6455964802 47.313275575
Fe 34.3964879254 17.2639178788 45.8782280423
Fe 35.8318510237 18.6346409886 47.3911710266
Fe 37.3610676275 17.2251807156 45.9519885358
Fe 38.766348909 18.6223040027 47.3590345548
Fe 40.2250185824 17.1667196578 45.8970871982
Fe 41.6067625218 18.6170375752 47.3733406345
Fe 43.033341297 17.2762402206 45.9528807246
Fe 44.528437901 18.6338277758 47.3759953785
Fe 45.9461869815 17.2469254994 45.9016046306
Fe 47.3579446774 18.6834078019 47.332137661
Fe 48.756683807 17.2220894399 45.8892864781
Fe 50.1724066871 18.6429862281 47.4095425254
Fe 51.6266142008 17.2633151995 45.9297723505
Fe 53.1247961195 18.6623537171 47.3338007427
Fe 54.5867839475 17.2253009859 45.8949005356
Fe 55.989757062 18.7102206564 47.3167940925
Fe 0.0557432002 20.144953746 45.9282935541
Fe 1.4568021625 21.5720609767 47.3982759705
Fe 2.8674489313 20.0895937894 45.9314727121
Fe 4.254705192 21.523686224 47.308825732
Fe 5.7368967176 20.1202403041 45.8858583338
Fe 7.1572193556 21.5213366984 47.3880730859
Fe 8.603047618 20.1306969533 45.9585783276
Fe 10.0584264241 21.5450343969 47.3546750686
Fe 11.4988456818 20.1423649565 45.9068720903
Fe 12.9172040788 21.5162797314 47.3207943366
Fe 14.3299038604 20.0856922696 45.9396565309
Fe 15.7629386598 21.5618142953 47.3030128467
Fe 17.2179290598 20.0671644891 45.9763750352
Fe 18.7072733612 21.5221528573 47.304652804
Fe 20.0756125995 20.1427250839 45.9474087545
Fe 21.5117265708 21.5513381179 47.375037654
Fe 22.9271617144 20.0798567027 45.9524880283
Fe 24.401504824 21.4763593756 47.3552064729
Fe 25.8651083445 20.0561295495 45.9554509089
Fe 27.2222535179 21.5149758092 47.3653378251
Fe 28.7461313243 20.0776284549 45.9182991222
Fe 30.1491448844 21.5110743304 47.3319953769
Fe 31.6024630935 20.1443443913 45.9080670915
Fe 32.960339981 21.5008993439 47.3285562451
Fe 34.3865253338 20.0653534149 45.8948031951
Fe 35.8864134037 21.4910794332 47.3193389232
Fe 37.3488623951 20.1406763451 45.9747069675
Fe 38.687925877 21.5668534213 47.3102237638
Fe 40.1303566022 20.0713533995 45.9056739668
Fe 41.6108892549 21.4846629791 47.3553618088
Fe 43.000610867 20.093359271 45.9651700411
Fe 44.4491925498 21.4697568665 47.3631054011
Fe 45.9537998839 20.0886511546 45.9646990987
Fe 47.3590724544 21.5016721163 47.3256993717
Fe 48.7721771451 20.0528475783 45.970630345
Fe 50.1740808318 21.5241110659 47.3838753584
Fe 51.6476621317 20.0958779581 45.9684986337
Fe 53.1216119218 21.5634969618 47.2976410564
Fe 54.4741371547 20.0434278333 45.9128553808
Fe 56.0118578282 21.549234463 47.3665383448
Fe 57.3451372183 22.9176105112 45.9140664868
Fe 1.398121714 24.3634226182 47.3573472382
Fe 2.9237805771 22.934837213 45.8814397133
Fe 4.2707659302 24.39055675 47.3960313411
Fe 5.7425711964 22.9250630774 45.9262125488
Fe 7.1463103251 24.3744243819 47.388168955
Fe 8.5622885491 22.9255389883 45.9376228939
Fe 10.0187462125 24.3528172068 47.329807761
Fe 11.5262121467 22.984480533 45.9548276257
Fe 12.9187509317 24.4276274839 47.3103996244
Fe 14.3766182003 23.0088369203 45.962198384
Fe 15.8164137736 24.4184701456 47.3197787546
Fe 17.178784159 22.9623673191 45.8659518904
Fe 18.6247931024 24.3766439073 47.298680436
Fe 20.1306959782 22.9785024757 45.9064949931
Fe 21.4729688785 24.3749433814 47.348516375
Fe 22.9224632078 22.9640734693 45.9524327144
Fe 24.412920109 24.3421192707 47.3924302931
Fe 25.8744360021 22.9230207554 45.9124943522
Fe 27.3199403666 24.4075083913 47.3813535899
Fe 28.6856689515 23.0069386439 45.8850465345
Fe 30.1023133025 24.3962104972 47.4069277063
Fe 31.5590034945 22.9571525921 45.9254149224
Fe 32.9503005637 24.4375459187 47.3539951978
Fe 34.4740187693 22.9311260974 45.9453094493
Fe 35.9181800389 24.4340510243 47.4082324666
Fe 37.3579547822 23.0100670217 45.8639113778
Fe 38.7226917854 24.3694268745 47.3735822591
Fe 40.1903656869 22.9609264106 45.9590427882
Fe 41.6225674787 24.4455129931 47.3966482512
Fe 43.0089155244 22.9769102946 45.9148235719
Fe 44.4353992549 24.3715980374 47.3009683519
Fe 45.9587613899 22.9063708861 45.9624246835
Fe 47.3192363408 24.4318040516 47.345276333
Fe 48.799452231 22.9040237417 45.8933719295
Fe 50.2190222599 24.4143032519 47.344402006
Fe 51.6656144331 22.9289583032 45.9600046018
Fe 53.1450379746 24.4071989412 47.3622621993
Fe 54.4993975656 22.9513297291 45.8909778638
Fe 55.9722508768 24.3388402537 47.3449023397
Fe 57.3687739733 25.8087669417 45.9320057078
Fe 1.4061511829 27.2098369981 47.3443341588
Fe 2.8359017382 25.7943256466 45.8933086343
Fe 4.3318331983 27.2340504642 47.3276393928
Fe 5.7930113106 25.7735974535 45.9611214602
Fe 7.1460164451 27.3098398996 47.3031638026
Fe 8.6535169168 25.836197984 45.9566028318
Fe 10.0482568712 27.2117816331 47.3600248183
Fe 11.4949493973 25.7866405305 45.894001265
Fe 12.8813392759 27.2233678971 47.3727235683
Fe 14.3420526829 25.7967927738 45.9714154666
Fe 15.7650583517 27.2640386625 47.3085548803
Fe 17.1688940786 25.8257034262 45.9045484281
Fe 18.6258234146 27.2513196155 47.3256197498
Fe 20.0759579002 25.8585657679 45.900019842
Fe 21.5010753668 27.2434643094 47.3350068864
Fe 22.9557276331 25.7903354459 45.9056841249
Fe 24.4406186311 27.2813877505 47.3999346149
Fe 25.7796858097 25.808731842 45.9429912154
Fe 27.212147659 27.2108670104 47.4004272757
Fe 28.7451518292 25.8701193119 45.9291076337
Fe 30.169736657 27.2646702677 47.3525478215
Fe 31.533651078 25.8541205859 45.9524357543
Fe 33.0241405436 27.256850138 47.3709301874
Fe 34.4911628087 25.8626569671 45.8792724889
Fe 35.8243884358 27.251059328 47.3040686032
Fe 37.2756464879 25.8277862549 45.9287580747
Fe 38.7648461175 27.2955566363 47.3228035317
Fe 40.1627250945 25.8792744116 45.9320431008
Fe 41.6233672089 27.246552726 47.3572480928
Fe 43.0441381207 25.8126876207 45.9286040383
Fe 44.5233718978 27.2720879924 47.3321848618
Fe 45.9639821113 25.8661020054 45.9043663057
Fe 47.3225321193 27.2634011029 47.3238535477
Fe 48.7980064095 25.8658611241 45.909416219
Fe 50.2604532984 27.3077184714 47.3105697862
Fe 51.6088004793 25.7896269239 45.8669354929
Fe 53.1468363802 27.2535423818 47.3194768418
Fe 54.5868392806 25.7746677121 45.9298992968
Fe 55.9144658016 27.217210687 47.3103471043
Fe 0.0294760485 28.7373261729 45.8894464102
Fe 1.4082320369 30.1465738735 47.4076694047
Fe 2.8156890946 28.6480961782 45.9690500467
Fe 4.3173803514 30.09651812 47.338387486
Fe 5.6870347786 28.7258209744 45.973682534
Fe 7.2306802459 30.1371927526 47.3231307715
Fe 8.6151044919 28.6858295476 45.9227495765
Fe 10.010239594 30.0973588979 47.3495600945
Fe 11.4808685647 28.7403814765 45.9129762121
Fe 12.9473307529 30.1713262785 47.3564074978
Fe 14.3393287857 28.6664957286 45.9289212163
Fe 15.7951315773 30.093144257 47.3869067716
Fe 17.271408389 28.6803099514 45.8641026006
Fe 18.6636869082 30.101703802 47.3782096203
Fe 20.0697993 28.6836486155 45.9573802797
Fe 21.4696947919 30.1302282711 47.3176115781
Fe 22.9435248782 28.7302990361 45.9336438782
Fe 24.4262659138 30.1758936828 47.3257572687
Fe 25.819105239 28.7098660198 45.9369973938
Fe 27.2592246402 30.1223000433 47.3313501413
Fe 28.7180093989 28.7529835524 45.8956021699
Fe 30.1647805647 30.16054984 47.3467424478
Fe 31.5581979676 28.6579755199 45.9556008425
Fe 32.9872320803 30.0998255361 47.3761464434
Fe 34.4242496514 28.6948875544 45.9270320194
Fe 35.8852722584 30.1721282217 47.3614042598
Fe 37.2869477992 28.7049629655 45.947010865
Fe 38.7462312029 30.1546615451 47.3798930836
Fe 40.1273994593 28.6983797803 45.8822194636
Fe 41.5693343338 30.1294687413 47.3753170695
Fe 43.0203037035 28.688849526 45.9434724833
Fe 44.5409655306 30.1777884076 47.3185830492
Fe 45.9071832932 28.6973851279 45.952292524
Fe 47.3158899482 30.1908293564 47.3019745688
Fe 48.7713255011 28.7444226401 45.9764875881
Fe 50.2535089675 30.1742598264 47.3597793844
Fe 51.6225222897 28.7517760017 45.957075306
Fe 53.0679529769 30.1923244108 47.4119167666
Fe 54.5301389444 28.688352223 45.9528271294
Fe 55.9459411506 30.1618213856 47.3661247148
Fe 0.0441154396 31.5611565954 45.9024684233
Fe 1.3866206811 32.960355881 47.3491344832
Fe 2.8345461756 31.5553922392 45.8792710191
Fe 4.2665145097 33.0597264791 47.3591508925
Fe 5.733884184 31.5346402493 45.928683941
Fe 7.2322422194 33.0162310839 47.3187471061
Fe 8.6621039816 31.5822027832 45.9382351494
Fe 9.9946808611 32.9611260412 47.3726572061
Fe 11.512328576 31.6146193469 45.9386695234
Fe 12.9643121799 32.9499892348 47.3726898841
Fe 14.2925367566 31.580037564 45.9281312913
Fe 15.8335363788 33.0122707076 47.3370342214
Fe 17.1882294511 31.5766736209 45.971603708
Fe 18.666949086 32.9684552704 47.3769399883
Fe 20.0802249063 31.5608902798 45.902635062
Fe 21.5582440165 33.0395928305 47.3991625325
Fe 22.9429001592 31.6070327827 45.8709338251
Fe 24.3845232932 33.0360094082 47.4124775849
Fe 25.8468824446 31.614555387 45.9582679443
Fe 27.2191962972 33.0228640713 47.3736021284
Fe 28.7517810772 31.5681745613 45.9149325067
Fe 30.1555715554 33.0046906472 47.38304761
Fe 31.5373655501 31.5134432203 45.9770316706
Fe 33.0081082727 33.0169096843 47.304830002
Fe 34.4956717359 31.6019313361 45.9145713133
Fe 35.871737331 32.9478897978 47.2997758361
Fe 37.3235963244 31.5146599437 45.9388811891
Fe 38.7669189421 33.0417835243 47.3217551521
Fe 40.1423320797 31.5461687216 45.9018301172
Fe 41.6335849197 33.0579509878 47.4125886892
Fe 43.0233751427 31.5745696153 45.9042789067
Fe 44.4405364792 33.032015383 47.3507736349
Fe 45.9009324351 31.5530446271 45.9134502037
Fe 47.3527619742 33.0402786148 47.4086428064
Fe 48.812687181 31.5386840521 45.9377406918
Fe 50.2329791552 32.9727266965 47.3590435199
Fe 51.684968379 31.6131908826 45.8717420304
Fe 53.1225912584 32.9861317783 47.3388357129
Fe 54.5696841204 31.5314025719 45.8829400643
Fe 55.9393611655 33.0306226923 47.3057731162
Fe 0.0058813939 34.4223202681 45.9082862664
Fe 1.4526614186 35.8748343294 47.3982531514
Fe 2.9271004512 34.4653327465 45.9634692064
Fe 4.3020473132 35.8747246384 47.403342301
Fe 5.6933875965 34.4054331214 45.9169235404
Fe 7.1362434855 35.9138153052 47.3988391287
Fe 8.557545162 34.4192780837 45.9585340454
Fe 10.0003448376 35.8598532351 47.3424991498
Fe 11.4384461826 34.4298020686 45.9044232186
Fe 12.9641127909 35.9308475168 47.3339968349
Fe 14.3656308155 34.3985656305 45.9645187023
Fe 15.7451860481 35.9228871676 47.2994536379
Fe 17.1781848324 34.4580560845 45.8730057
Fe 18.621717152 35.8703046397 47.3445626756
Fe 20.0478274782 34.397115958 45.906188658
Fe 21.4808214302 35.9046265132 47.3547445043
Fe 22.9733864275 34.4632183049 45.8786535463
Fe 24.3693744889 35.9168934819 47.3784984713
Fe 25.8601446679 34.4785981994 45.9303626836
Fe 27.2718922961 35.8342346711 47.3399820111
Fe 28.7333228584 34.3953401621 45.8930226588
Fe 30.0813550442 35.9014672458 47.3096827566
Fe 31.5564719926 34.4633642828 45.9668021878
Fe 33.0065526933 35.9182081772 47.4082696763
Fe 34.4204514401 34.4973131153 45.9035195745
Fe 35.9315942714 35.8518874681 47.3131312201
Fe 37.3563592468 34.3922159818 45.8932672801
Fe 38.7927231292 35.8355189578 47.3188091597
Fe 40.1478607273 34.4240330774 45.8804610833
Fe 41.5924231478 35.8974821202 47.3816123215
Fe 43.0894353664 34.4904655858 45.9248481309
Fe 44.5076737002 35.8303103166 47.409202887
Fe 45.9598203367 34.4018357929 45.9236924272
Fe 47.3461253071 35.85396994 47.3286968913
Fe 48.752581559 34.4377753036 45.8954576042
Fe 50.2015001056 35.8937258233 47.3011511354
Fe 51.6129606671 34.4179379196 45.9116245132
Fe 53.047742579 35.8208371567 47.3926684226
Fe 54.4839591134 34.4159066236 45.9410900718
Fe 55.9822235862 35.8989792277 47.3292182211
Fe 57.3535685316 37.2776609221 45.9689149099
Fe 1.4910311318 38.783544332 47.3005467392
Fe 2.8176526959 37.3303983724 45.8668771905
Fe 4.3448658778 38.7482739847 47.3654249282
Fe 5.7051554185 37.3538464306 45.9746866488
Fe 7.1501913368 38.7471523453 47.3242988197
Fe 8.5594567506 37.2768581548 45.9223072848
Fe 10.0197477936 38.7020937422 47.3009037467
Fe 11.4830018559 37.3265660878 45.868823876
Fe 12.9288527677 38.7220805353 47.3738275596
Fe 14.4004865667 37.3430122278 45.8794958754
Fe 15.8360737884 38.7865326275 47.3102406121
Fe 17.2328767924 37.3639032216 45.9518940606
Fe 18.6258573904 38.7764769296 47.3492925825
Fe 20.1005252214 37.308150708 45.9480889256
Fe 21.5169411911 38.7681252694 47.3019775514
Fe 22.9421353449 37.3433110647 45.8833516308
Fe 24.3992872735 38.6975453293 47.3983827959
Fe 25.8009940751 37.2775737424 45.9005116602
Fe 27.2587293027 38.725423831 47.409232858
Fe 28.7022625007 37.3364477515 45.9323226497
Fe 30.1109169139 38.7122863479 47.3921723017
Fe 31.5172742151 37.3229539931 45.9519349601
Fe 32.9927444369 38.7618398793 47.3180697514
Fe 34.40032584 37.3552989571 45.9159549271
Fe 35.8545538989 38.7244349359 47.3193820844
Fe 37.2941393323 37.3279643189 45.8826237855
Fe 38.6879708574 38.7965479114 47.3975821429
Fe 40.1236378153 37.3312168176 45.951432278
Fe 41.6067637926 38.7596054746 47.3413376031
Fe 43.0166050679 37.3560909488 45.951805062
Fe 44.5376502706 38.7981884105 47.3845936505
Fe 45.8768702268 37.3565669162 45.9691012883
Fe 47.3278014274 38.7350073979 47.3098747534
Fe 48.8042255026 37.2740634769 45.8884427788
Fe 50.2664835342 38.7209945254 47.3019880822
Fe 51.6449231269 37.3578581282 45.8757645266
Fe 53.0852125592 38.7640770093 47.2976975179
Fe 54.5660101468 37.3358337006 45.8786170027
Fe 55.9942241322 38.7034741425 47.3198851077
Fe 57.3903124782 40.1572629805 45.9080206531
Fe 1.457525442 41.6310692919 47.4109441474
Fe 2.9054761676 40.2243689365 45.9298738918
Fe 4.2707541944 41.5775209113 47.350759613
Fe 5.6995364424 40.1238990841 45.9538791169
Fe 7.1816381689 41.6581173625 47.3473207274
Fe 8.6566093636 40.1573392762 45.8948815323
Fe 10.0146125433 41.563484382 47.2998773401
Fe 11.4694793308 40.1429035149 45.8947375887
Fe 12.8898537403 41.6014215231 47.3492859866
Fe 14.3427127679 40.2204058369 45.8799470258
Fe 15.7910766699 41.6712536582 47.3264611358
Fe 17.277450041 40.2190114714 45.86237535
Fe 18.6614964405 41.6229664901 47.3535661349
Fe 20.1405129182 40.1895318436 45.9381443253
Fe 21.4900877854 41.5690882722 47.3827869915
Fe 22.9850430456 40.1246666176 45.9071025238
Fe 24.3568718387 41.5900888095 47.4010277422
Fe 25.8345104402 40.227661722 45.9717079685
Fe 27.2570347458 41.6258299856 47.3927826902
Fe 28.6683175652 40.1824937071 45.9273915219
Fe 30.0894542664 41.6703190939 47.3215605494
Fe 31.549113854 40.1833273753 45.9775495054
Fe 32.9939405886 41.6495442577 47.3041431078
Fe 34.4752296575 40.2016703829 45.8651676175
Fe 35.8886106407 41.6254896359 47.3726035614
Fe 37.3022657017 40.1263264462 45.90936104
Fe 38.7906312698 41.6375991465 47.3713256409
Fe 40.1448607178 40.2158254913 45.8717361987
Fe 41.6470381932 41.5677924687 47.4031790986
Fe 43.0947393617 40.2025591761 45.9196262109
Fe 44.5175339298 41.6305413908 47.3063913922
Fe 45.8899339222 40.1237360855 45.923432278
Fe 47.3717154079 41.6580526448 47.3632707717
Fe 48.7514879875 40.1662151983 45.8804190298
Fe 50.2555599918 41.6211736963 47.3100073882
Fe 51.6764225812 40.2213981329 45.8666895472
Fe 53.0490206037 41.6486161967 47.351638556
Fe 54.5469040624 40.1781483168 45.8776519256
Fe 56.0113561465 41.5914773435 47.3482525005
Fe 57.380981369 42.9966468358 45.9392044518
Fe 1.4474853577 44.4922911327 47.3247937939
Fe 2.8745476983 43.0163635111 45.9068967159
Fe 4.3080369999 44.432962794 47.3968865969
Fe 5.6921119717 43.0101956154 45.8855062394
Fe 7.2020427898 44.5018216395 47.3348738467
Fe 8.6634328243 43.0517146774 45.9109185927
Fe 9.9960514961 44.4781907775 47.329952668
Fe 11.5200916882 43.0367055404 45.9053808887
Fe 12.878938998 44.4595828659 47.3744771704
Fe 14.3275272571 43.0264118179 45.9150702278
Fe 15.7413885882 44.5113459686 47.3285902306
Fe 17.2035687843 43.0750606915 45.8692832393
Fe 18.6371230934 44.4814808463 47.3982929337
Fe 20.0615660243 43.0356515294 45.9111640412
Fe 21.4977062144 44.4825403019 47.4103676969
Fe 22.9585572746 43.047139428 45.8691375995
Fe 24.4040394705 44.4814500944 47.3035287612
Fe 25.8207739328 43.057862821 45.9429075986
Fe 27.3151981555 44.5374406043 47.3061908345
Fe 28.7052843826 43.016354522 45.8729914115
Fe 30.1081989802 44.52540857 47.2988618002
Fe 31.5468388021 43.0793858447 45.9343385854
Fe 33.0625774583 44.465452274 47.3260665203
Fe 34.4497660181 43.0299213981 45.8778893134
Fe 35.9303528704 44.4620689797 47.3352699948
Fe 37.3125415705 43.0283066911 45.8837860824
Fe 38.7701296068 44.4327848391 47.2992053462
Fe 40.2295708799 43.0890781387 45.8801737331
Fe 41.6099983841 44.4734465291 47.3072340779
Fe 43.0408510791 42.9976292138 45.965809352
Fe 44.4993177429 44.4735554927 47.2996019695
Fe 45.880761031 43.0881020057 45.8664179082
Fe 47.3762965316 44.523198373 47.3885766021
Fe 48.8180788023 43.0897123034 45.9742095505
Fe 50.2376861701 44.5308807344 47.4091563084
Fe 51.6815853119 43.0526574604 45.9018656435
Fe 53.1023041156 44.4983088639 47.3744305173
Fe 54.5337638416 43.0353458331 45.9394570894
Fe 56.0088424659 44.4630145485 47.2992358905
Fe 0.0055974903 45.9689649637 45.9379256711
Fe 1.4081309577 47.3919677442 47.3379234002
Fe 2.8646785177 45.8959453162 45.9635298512
Fe 4.3137638363 47.366498081 47.3406640411
Fe 5.7051574468 45.9694243746 45.8719453149
Fe 7.1505315378 47.3254593431 47.3301082575
Fe 8.5993100894 45.9484849693 45.8948519074
Fe 10.0673153767 47.401749933 47.3668481074
Fe 11.4776971636 45.9675794006 45.9037407351
Fe 12.9587071853 47.3019631972 47.3185671203
Fe 14.3497763987 45.9104719007 45.9167588515
Fe 15.7546476817 47.3068673753 47.3541699841
Fe 17.1837296812 45.9665753448 45.9051817226
Fe 18.6799833703 47.3681955707 47.3344525444
Fe 20.0887743784 45.9538779065 45.8808079308
Fe 21.5652621145 47.329029998 47.3251762999
Fe 23.0046464476 45.9317425446 45.8949017117
Fe 24.4340449704 47.3423838263 47.3887168619
Fe 25.7772205521 45.8691752222 45.9486510916
Fe 27.2908003476 47.3739559941 47.4061590296
Fe 28.6842458568 45.8826775843 45.8729393339
Fe 30.1729511423 47.388616902 47.3447132398
Fe 31.5996194548 45.8930779271 45.8750313609
Fe 32.9716256872 47.367476617 47.388667564
Fe 34.492593167 45.9184846898 45.9543496607
Fe 35.8444077835 47.3041577588 47.3674689493
Fe 37.3488793761 45.8804570513 45.8941271783
Fe 38.7017719976 47.3163332526 47.4019348914
Fe 40.1597898976 45.8888072676 45.884632493
Fe 41.5767121192 47.3012608302 47.374772277
Fe 43.0564778888 45.9595858092 45.9752457891
Fe 44.529888013 47.321657108 47.317425607
Fe 45.9343666671 45.9085038784 45.8849466574
Fe 47.4032049048 47.3691618375 47.410277767
Fe 48.7745270107 45.965947505 45.9166302457
Fe 50.2566862868 47.3386687399 47.3635732408
Fe 51.6512844908 45.8710078385 45.9570139052
Fe 53.0977032588 47.3834191694 47.3488616939
Fe 54.4859977009 45.9741634697 45.9392565131
Fe 55.9969647386 47.3255936846 47.3573269969
Fe 0.0274903767 48.7938229909 45.9034400999
Fe 1.4620863896 50.2477979877 47.3457553384
Fe 2.8857524556 48.7445786491 45.9240389662
Fe 4.3172797127 50.2351399902 47.4109738358
Fe 5.7063766211 48.815175865 45.9608226679
Fe 7.1469679463 50.256609293 47.307726524
Fe 8.6376474261 48.7603400481 45.9034503376
Fe 10.0792129942 50.2183299791 47.3235564605
Fe 11.5173195955 48.817090122 45.8773443936
Fe 12.9040841973 50.2018592741 47.3491192549
Fe 14.3578960877 48.75834079 45.9574377033
Fe 15.729393761 50.2606213349 47.4084176263
Fe 17.2506979087 48.8423946638 45.9643344352
Fe 18.6311174803 50.2380068276 47.3619380651
Fe 20.0762062931 48.7871188764 45.9266587128
Fe 21.5043711083 50.2233039862 47.3104846352
Fe 22.9902114364 48.776558266 45.900001137
Fe 24.4149084572 50.1854129055 47.3891180654
Fe 25.7901107592 48.8090900588 45.9156043255
Fe 27.2227447283 50.2277161996 47.3457490711
Fe 28.7333959583 48.7634635573 45.9264719915
Fe 30.1510391797 50.2137567766 47.3696621935
Fe 31.5455770138 48.7426904841 45.8918745409
Fe 33.0551121556 50.2824213052 47.3664977387
Fe 34.4794398747 48.7654896954 45.9562427502
Fe 35.9206846442 50.1786627802 47.3462650804
Fe 37.3648686653 48.8298400563 45.9179977016
Fe 38.7718128193 50.1777789492 47.3247276003
Fe 40.1720534665 48.7597545443 45.8698253058
Fe 41.6535383967 50.2712624921 47.4098335779
Fe 43.0368008413 48.7684189236 45.8837777073
Fe 44.5080906696 50.2602663562 47.3727043239
Fe 45.901088093 48.7984011827 45.9117691452
Fe 47.3681758298 50.2035513705 47.4012395171
Fe 48.7682575924 48.7414612943 45.9224877006
Fe 50.2569769442 50.2643505627 47.3324845458
Fe 51.6748041121 48.750701361 45.9712624139
Fe 53.1209247759 50.2616956222 47.3415718667
Fe 54.5043394982 48.8351150545 45.977604459
Fe 56.014125754 50.2771612566 47.3467710501
Fe 0.0337117777 51.6676209251 45.9671493593
Fe 1.4399389077 53.1444332711 47.406393276
Fe 2.9198295437 51.606326802 45.8990029378
Fe 4.3540650103 53.1314243408 47.3711679506
Fe 5.694389588 51.6180465668 45.9312096669
Fe 7.125969633 53.1049363107 47.3807094727
Fe 8.6551842624 51.6673419031 45.9699804744
Fe 10.1019588258 53.080665272 47.374430172
Fe 11.4605702611 51.6374336319 45.913580072
Fe 12.8867594113 53.1181481096 47.3732597118
Fe 14.2940200411 51.6194121766 45.9540618254
Fe 15.7685987422 53.1315756188 47.4043059276
Fe 17.1941294767 51.6913276499 45.9307097815
Fe 18.6750396539 53.0478515387 47.3149817707
Fe 20.0463234835 51.6397240055 45.8703372325
Fe 21.5466448908 53.090943095 47.3322928276
Fe 22.9292668965 51.7042823397 45.8623528673
Fe 24.4137249519 53.082372612 47.3092265024
Fe 25.8121238577 51.7165308256 45.9299641034
Fe 27.2133547073 53.1090530994 47.3346976021
Fe 28.7212962324 51.6700757012 45.9618687127
Fe 30.1436564658 53.0724087028 47.3068024571
Fe 31.5226693069 51.6275066073 45.9299759896
Fe 32.9785851001 53.0684701124 47.3029158354
Fe 34.4199842987 51.6578307958 45.8647101132
Fe 35.9315245463 53.0567626877 47.3896075436
Fe 37.2552375835 51.6895926179 45.9755749081
Fe 38.7157476254 53.0568045889 47.369750775
Fe 40.2364504033 51.645863615 45.9022521636
Fe 41.6269839639 53.1094119463 47.3060659554
Fe 43.0359221235 51.613979714 45.9623194924
Fe 44.4898602675 53.0513352671 47.3673808336
Fe 45.9768527747 51.6700501785 45.8642221354
Fe 47.3520275623 53.1140149398 47.3968949229
Fe 48.799946645 51.7124188708 45.9529263653
Fe 50.2649098206 53.0636422696 47.3968560299
Fe 51.6434927461 51.673402902 45.914753555
Fe 53.1468799511 53.1045156939 47.4018321357
Fe 54.5769797164 51.678980719 45.9732292571
Fe 55.9783092503 53.0977946644 47.3994189059
Fe 0.0083050565 54.5672717649 45.9432530909
Fe 1.4208047973 55.9788442805 47.3814751122
Fe 2.8424478711 54.5670334822 45.9311766142
Fe 4.3287386554 55.9543887808 47.3556179994
Fe 5.7494758644 54.500812999 45.9175376551
Fe 7.1919946954 56.0020730774 47.3789653452
Fe 8.6528014389 54.4748621895 45.8630326615
Fe 10.0798347981 55.9128712455 47.4127202905
Fe 11.4568399977 54.5752710314 45.8826416581
Fe 12.9006662321 55.9206784294 47.3588903025
Fe 14.3875619642 54.5105492679 45.9026367652
Fe 15.7772553171 55.9244228131 47.3131575992
Fe 17.2521007165 54.4751026941 45.9104626649
Fe 18.5980862511 55.9940693366 47.3580537478
Fe 20.0846728205 54.5819460745 45.8950994977
Fe 21.545330807 55.9708798298 47.3549833634
Fe 22.9292607687 54.5179134868 45.9067755712
Fe 24.4446818878 55.971687791 47.3042715584
Fe 25.7928793872 54.5071165522 45.9490223608
Fe 27.3223572592 55.9671647197 47.3460267523
Fe 28.647987556 54.4914812463 45.9602131865
Fe 30.1751458778 55.9576367113 47.3582388005
Fe 31.527712448 54.5001274215 45.9774363301
Fe 32.9852304871 55.9982001045 47.3515863197
Fe 34.4211458749 54.4842480486 45.9144170466
Fe 35.900581712 56.0035000188 47.3561154499
Fe 37.3361455299 54.5376874008 45.9283275037
Fe 38.8018528944 55.9478044222 47.3565683671
Fe 40.1462148388 54.494639948 45.9138740573
Fe 41.6263166924 55.9697250283 47.3321330491
Fe 43.0402460954 54.5192463748 45.9430847298
Fe 44.5209930868 55.9233763916 47.3898408866
Fe 45.8805969811 54.4832103793 45.885492741
Fe 47.3885692924 55.9757312223 47.3614090596
Fe 48.8277974205 54.5808647068 45.9575796673
Fe 50.276023443 55.9365681215 47.3588448239
Fe 51.6417190346 54.5323222725 45.9511264616
Fe 53.0717060291 56.0019124824 47.3068540131
Fe 54.5621537328 54.52746333 45.8839030884
Fe 55.9681887324 55.945977776 47.3452639619
Fe 57.3950944848 57.3936344527 48.8457051837
Fe 1.4105826676 1.4119542088 50.2218136105
Fe 2.8497606033 57.3803273176 48.8266080711
Fe 4.250323741 1.4746465475 50.2123454398
Fe 5.723097594 0.0079672525 48.7345866892
Fe 7.1692432701 1.4198189696 50.219897527
Fe 8.5739892277 57.3840983892 48.7393543293
Fe 10.0308188524 1.4430811507 50.2693392546
Fe 11.469315012 0.0566396361 48.8425265794
Fe 12.9631287078 1.4005799373 50.2353035575
Fe 14.3557622684 0.051503554 48.7915001654
Fe 15.8151933615 1.4557921688 50.2581096017
Fe 17.2461452997 57.3588733172 48.8417361596
Fe 18.7064071747 1.3944916144 50.2128472818
Fe 20.0374815406 57.3680148413 48.7947276663
Fe 21.5323660161 1.4756871517 50.2556096153
Fe 23.0071942539 0.0271904552 48.7355508411
Fe 24.3647915846 1.4450289412 50.2520216285
Fe 25.8546031201 0.0143455745 48.7767611447
Fe 27.2166666082 1.4751698668 50.2598949323
Fe 28.6984288388 0.0416239499 48.8334248564
Fe 30.1369938798 1.3902861178 50.268362884
Fe 31.5676988768 57.3613651037 48.8357045006
Fe 32.9662825204 1.4558490772 50.1939946647
Fe 34.4456088772 57.3561469449 48.8144272329
Fe 35.9249639587 1.4728643038 50.2271374562
Fe 37.3388581457 0.0045831729 48.7979553082
Fe 38.7167569133 1.3935020258 50.2124250781
Fe 40.1797487025 0.0569137413 48.8127450845
Fe 41.6061469354 1.4440047433 50.1714371004
Fe 43.028773037 57.3846342956 48.8111892774
Fe 44.5402696833 1.4320091453 50.1679585119
Fe 45.9166666308 57.3441658271 48.8122731595
Fe 47.3323271946 1.4536749914 50.1688425499
Fe 48.7600324881 57.3902953517 48.7690393761
Fe 50.2556057158 1.4847991913 50.1928443228
Fe 51.618269575 0.037544852 48.7886818494
Fe 53.1099132288 1.4072309554 50.2315709778
Fe 54.50225075 0.0472495082 48.8215119863
Fe 56.0134837314 1.4039138083 50.2166737368
Fe 57.391007085 2.9141419778 48.7830007018
Fe 1.4064799065 4.3522045169 50.2303318309
Fe 2.9102980281 2.8643618643 48.7739671618
Fe 4.2564915642 4.3429013217 50.2343796698
Fe 5.7272332127 2.818482836 48.8311643422
Fe 7.1450159271 4.3242524802 50.2587276444
Fe 8.5529624624 2.8495095097 48.7549298501
Fe 10.0491029797 4.2506933179 50.2813269394
Fe 11.4480815098 2.9142537067 48.7343614665
Fe 12.9312996784 4.3268217483 50.2610843478
Fe 14.3495827662 2.8785343519 48.7673305845
Fe 15.7362722526 4.265342179 50.256372118
Fe 17.1903539665 2.8757523514 48.7400446661
Fe 18.7092201118 4.3144359299 50.2017496905
Fe 20.1382970953 2.8925015203 48.7654320311
Fe 21.4890121211 4.2509051513 50.1901957268
Fe 23.0171814609 2.8397778239 48.7970046009
Fe 24.3844997792 4.3530707524 50.2153732637
Fe 25.8568012857 2.9260852654 48.7461006777
Fe 27.2289362024 4.271168198 50.2552977711
Fe 28.679449816 2.840450535 48.7574758526
Fe 30.1233532353 4.316474759 50.1684922721
Fe 31.5792215889 2.9276148044 48.7706310809
Fe 33.0325405497 4.250285267 50.2668009477
Fe 34.4172854502 2.8844846983 48.7497448444
Fe 35.8851679982 4.3593643499 50.281707371
Fe 37.3624602812 2.862978384 48.8072413411
Fe 38.7003398777 4.3372528388 50.231892785
Fe 40.1264790456 2.9167125931 48.8055711424
Fe 41.5910925036 4.286027579 50.2695275199
Fe 42.9976601324 2.8907972078 48.8428568561
Fe 44.456438394 4.3564265038 50.1806324657
Fe 45.8698831936 2.8175944029 48.8098787879
Fe 47.3880916399 4.3298672038 50.2188840835
Fe 48.7786888683 2.8257573153 48.7955352008
Fe 50.1694427506 4.2660310167 50.2729161137
Fe 51.6430036097 2.8449813675 48.8436503017
Fe 53.0426767266 4.2685814222 50.2763972495
Fe 54.5003597482 2.8398939081 48.7897154602
Fe 55.953194128 4.3579180181 50.2471145734
Fe 0.0274695033 5.7151661079 48.7564219623
Fe 1.3786643495 7.2267892545 50.2014053027
Fe 2.8260436139 5.6991998631 48.7443571925
Fe 4.2860871631 7.1673581781 50.1749725251
Fe 5.7832053412 5.6989628806 48.7495542744
Fe 7.1609727196 7.1523990351 50.18586712
Fe 8.616167979 5.788541262 48.822845827
Fe 9.9943255773 7.1211286839 50.2100843746
Fe 11.4966232349 5.7665157975 48.8103965494
Fe 12.9556463148 7.1411005068 50.2083822104
Fe 14.3861473249 5.7725898403 48.7803044483
Fe 15.816070211 7.138153396 50.2367886294
Fe 17.2084971753 5.7435315301 48.7833942273
Fe 18.6545210425 7.1336737268 50.1889174739
Fe 20.0382247186 5.6882699501 48.8123534565
Fe 21.563253332 7.1991764568 50.1942336645
Fe 23.0098243252 5.720650521 48.8243850552
Fe 24.4165859438 7.1690191356 50.171205015
Fe 25.8318901004 5.7317449311 48.7744764704
Fe 27.2531027087 7.128755747 50.21159619
Fe 28.6958111499 5.7774603798 48.7439248388
Fe 30.114380768 7.1477818753 50.1698846127
Fe 31.6041545694 5.7015937685 48.7903959336
Fe 32.9679912343 7.1191376819 50.2421138165
Fe 34.4076077617 5.7685715881 48.8466519459
Fe 35.9308268551 7.1457057951 50.1805165446
Fe 37.2570737963 5.7783471873 48.7480180417
Fe 38.739071165 7.204018979 50.2654939355
Fe 40.2052987408 5.7652129617 48.8170228032
Fe 41.5811284528 7.204737159 50.1751439408
Fe 43.0450612362 5.7274523568 48.752776521
Fe 44.4456790369 7.2103528816 50.1868850772
Fe 45.9092696674 5.6939294025 48.7490703615
Fe 47.3974545189 7.1525175438 50.2611648655
Fe 48.7931264308 5.7186985422 48.8335459365
Fe 50.1841474933 7.2221673264 50.2279910239
Fe 51.6605871111 5.7197794796 48.7326079649
Fe 53.1483750841 7.1833071692 50.1977320734
Fe 54.5140525366 5.7724446917 48.8422031394
Fe 55.9654061428 7.1511569197 50.2083350084
Fe 57.3863456662 8.6636627919 48.8214624774
Fe 1.4889917758 10.0168351012 50.1684753602
Fe 2.8509643711 8.6311999555 48.7403191772
Fe 4.327291284 10.0076669103 50.2546333246
Fe 5.7117538074 8.6465165871 48.7447985706
Fe 7.1814715513 9.9918732846 50.2606500351
Fe 8.56059519 8.6211113876 48.7500583534
Fe 10.090282887 10.0812212213 50.2286770013
Fe 11.4449186158 8.6569207818 48.8252576296
Fe 12.9138454468 10.0587099351 50.2291875575
Fe 14.3532876826 8.5762100516 48.8048472531
Fe 15.7858497304 10.0548973112 50.1723695344
Fe 17.2578132507 8.6418779945 48.7552208095
Fe 18.636971427 10.0094439156 50.22470024
Fe 20.1398329283 8.6542094781 48.7561691312
Fe 21.5247619174 10.0981174865 50.1945491066
Fe 22.9345544669 8.6479057344 48.7839522893
Fe 24.3657259673 10.0173375542 50.2749860173
Fe 25.7872028848 8.5693070473 48.8166255132
Fe 27.2166078922 10.0449848225 50.1895614286
Fe 28.7166669423 8.6419491915 48.8402193253
Fe 30.1049301861 10.0347060765 50.1844469128
Fe 31.5170496243 8.5605729689 48.741719252
Fe 32.9818036471 10.0826504277 50.2084712376
Fe 34.4336978683 8.6064510023 48.7417983222
Fe 35.8935838934 10.0324456165 50.2591487074
Fe 37.2710095528 8.6152564403 48.7424676186
Fe 38.784398664 10.0669430781 50.2598722587
Fe 40.1320607747 8.6609707286 48.8010615707
Fe 41.6327436351 10.008162076 50.2268151609
Fe 43.0388660375 8.5619850733 48.8065007693
Fe 44.4974758012 10.0550595468 50.1831211177
Fe 45.9081630937 8.5949801496 48.8464582756
Fe 47.3069109599 9.9952313797 50.2146426685
Fe 48.8466494023 8.6578706009 48.8461893109
Fe 50.1783621502 9.9894318944 50.2397251784
Fe 51.6062929386 8.642255706 48.8103890317
Fe 53.0690788238 10.0743966898 50.2695402337
Fe 54.5402940835 8.6397854891 48.8196153958
Fe 55.9242843854 10.0861312273 50.2683612308
Fe 57.3925588619 11.4566283099 48.8226258179
Fe 1.4053410896 12.8958034103 50.2652132799
Fe 2.814860105 11.4762828343 48.8446027574
Fe 4.351901509 12.896747818 50.2586150237
Fe 5.7773584857 11.4388939485 48.8265767476
Fe 7.1896490117 12.9400115805 50.2681572681
Fe 8.5983923259 11.431012696 48.7877762109
Fe 10.0057763205 12.861157247 50.2466497718
Fe 11.4431897952 11.4499617386 48.7335938464
Fe 12.8939219859 12.8808442556 50.2259541821
Fe 14.380950514 11.426016891 48.7967894436
Fe 15.8193984859 12.922197823 50.2153119999
Fe 17.1925093842 11.5117404866 48.8359087363
Fe 18.6152515062 12.9618393298 50.2705680897
Fe 20.1353182805 11.4703120932 48.8298666004
Fe 21.5428988948 12.9177695422 50.2525770968
Fe 23.015126217 11.4513273414 48.7960577207
Fe 24.390030859 12.9618055569 50.2653880611
Fe 25.851889553 11.4534793652 48.8091410943
Fe 27.212547598 12.9440800027 50.2274562748
Fe 28.6853010062 11.5149516704 48.7753563986
Fe 30.1870395061 12.9506480744 50.1787929703
Fe 31.6274802645 11.4293449662 48.772221893
Fe 33.0480506197 12.8975474639 50.2459005195
Fe 34.4429490572 11.4762067906 48.7526256325
Fe 35.8835134911 12.962509575 50.2374788823
Fe 37.2923180756 11.4577070372 48.8432974317
Fe 38.7727717206 12.9136918694 50.168893274
Fe 40.2066660078 11.4530734091 48.7616233097
Fe 41.5983422293 12.9537950273 50.2330904751
Fe 43.078226075 11.4267640122 48.7869070067
Fe 44.4718332664 12.9128721876 50.2026542229
Fe 45.8748015058 11.4415226223 48.7573043018
Fe 47.3812650274 12.9550727634 50.2165577854
Fe 48.8353545097 11.5305455251 48.8357381077
Fe 50.2024889368 12.9631267077 50.2703971343
Fe 51.6055544353 11.5091232991 48.8292283629
Fe 53.0933914694 12.9005104841 50.1884693363
Fe 54.5005119585 11.4470407123 48.8101192197
Fe 55.9916679836 12.9446792813 50.2499809749
Fe 57.3475812943 14.3943053729 48.7863266249
Fe 1.4747531994 15.7775152245 50.1874465544
Fe 2.8831584933 14.3922023514 48.735066703
Fe 4.2487434208 15.732616355 50.2510780672
Fe 5.7702763366 14.4048443162 48.7681023076
Fe 7.150738983 15.7326135435 50.1710530697
Fe 8.5677519224 14.374506249 48.7797632677
Fe 10.0590657535 15.7487595648 50.1846228789
Fe 11.5192855337 14.3312278879 48.8085803105
Fe 12.9572260409 15.7995472841 50.1808876127
Fe 14.3731246244 14.4002081322 48.8178645744
Fe 15.8014032147 15.7307059255 50.1689848364
Fe 17.1839529858 14.4071531537 48.8301522697
Fe 18.6786581818 15.7931123761 50.2663751523
Fe 20.1279982296 14.3276191975 48.7563949684
Fe 21.5499405513 15.8049683698 50.2066003118
Fe 22.9066366254 14.3322403719 48.7649446928
Fe 24.3828718133 15.7942154106 50.1872475581
Fe 25.7859137941 14.3140595342 48.8074938118
Fe 27.2096367261 15.7443495286 50.2336397778
Fe 28.6621423474 14.3497565767 48.7614008978
Fe 30.1036081262 15.8124140088 50.2135280025
Fe 31.5522955714 14.3064307625 48.7896005711
Fe 32.9532235744 15.7714045028 50.1743077829
Fe 34.4228456163 14.3326019863 48.8386166281
Fe 35.929772102 15.7737061738 50.1741896697
Fe 37.2819150093 14.2954246034 48.8364240292
Fe 38.7524815092 15.7709950517 50.2134907074
Fe 40.2236223944 14.3057882105 48.8138845798
Fe 41.6499863891 15.8301003554 50.212472254
Fe 43.0428721325 14.3490679807 48.8454643146
Fe 44.5263810605 15.7588360716 50.2295647677
Fe 45.9768443443 14.34670746 48.8168627544
Fe 47.3277176915 15.8247712489 50.2805101879
Fe 48.7421396584 14.3694773804 48.7682340195
Fe 50.2077081366 15.7993349529 50.2404638536
Fe 51.6981209626 14.3321629522 48.7788987266
Fe 53.0502376285 15.7368138553 50.1682731399
Fe 54.4918198815 14.3940129278 48.8026207126
Fe 55.9580389697 15.7580335493 50.2391146201
Fe 57.3510993316 17.2318577622 48.8271105425
Fe 1.4113774868 18.6799312009 50.2128648536
Fe 2.8626449973 17.2253459473 48.7659042611
Fe 4.2946733266 18.6415612923 50.1704674516
Fe 5.6930435603 17.223782021 48.8030028752
Fe 7.2226954233 18.6088358916 50.2295566924
Fe 8.5964541616 17.2166752906 48.7364636504
Fe 10.0850264388 18.69502711 50.2694616428
Fe 11.4834633972 17.2611792335 48.8346907162
Fe 12.9186161952 18.6443116563 50.2000256788
Fe 14.3826445801 17.205397229 48.762468806
Fe 15.7475844127 18.6839881378 50.22752536
Fe 17.2398582825 17.2210685458 48.7971498338
Fe 18.6408266994 18.6568315183 50.2537611743
Fe 20.0393287203 17.2571048879 48.7495112258
Fe 21.5109785878 18.655542832 50.2117217936
Fe 22.9850509026 17.1743603052 48.7775155978
Fe 24.4101564381 18.7026917958 50.2102679982
Fe 25.7950066578 17.1734058495 48.73923318
Fe 27.30156118 18.6149772193 50.2709050369
Fe 28.666096044 17.2335518723 48.784575657
Fe 30.1702389005 18.6335684084 50.2320941033
Fe 31.5620412216 17.2622341914 48.7747802205
Fe 33.0059504074 18.6693314151 50.224625223
Fe 34.4876289674 17.1731497877 48.7990413356
Fe 35.8950504146 18.6181954138 50.2227927262
Fe 37.3678368953 17.2356512346 48.8376724704
Fe 38.7450849714 18.652259371 50.2162298355
Fe 40.1487000186 17.2681978843 48.7499006091
Fe 41.632201731 18.6281131874 50.1816168568
Fe 43.0210187588 17.1959856221 48.7564405409
Fe 44.4880141445 18.6047060787 50.2000690455
Fe 45.877210291 17.272326215 48.7597237814
Fe 47.3444317133 18.7121663796 50.2121695279
Fe 48.8264545482 17.1785926366 48.8057985352
Fe 50.1805437472 18.7008579311 50.1754472477
Fe 51.6519088567 17.2373482617 48.8402343357
Fe 53.1386485461 18.641459662 50.2225265727
Fe 54.5709534914 17.195756335 48.8383484844
Fe 55.9507643831 18.6169475395 50.2010411675
Fe 57.3787828032 20.0622906734 48.7524411225
Fe 1.4736781222 21.5076122562 50.2441186594
Fe 2.824168761 20.0539993486 48.7746062453
Fe 4.3563681956 21.4711734938 50.2328207738
Fe 5.7454868277 20.0977847524 48.8251449127
Fe 7.1528272727 21.536165867 50.2507733164
Fe 8.6587799139 20.1309922291 48.8048917576
Fe 10.0860291322 21.5492021463 50.203235539
Fe 11.5208690923 20.1447374845 48.7804279707
Fe 12.8604983818 21.5683564226 50.2119555951
Fe 14.3300757947 20.1263715907 48.8358509568
Fe 15.7967936839 21.5582712229 50.2122686068
Fe 17.1938407013 20.0996884745 48.8251972115
Fe 18.6058800432 21.4926558865 50.2488651038
Fe 20.0519479328 20.0659326819 48.7605321229
Fe 21.5586060973 21.5034474262 50.2807639981
Fe 22.9681714379 20.093111695 48.8341253139
Fe 24.412792914 21.5668761647 50.2496390121
Fe 25.8844834504 20.1451972024 48.7419245337
Fe 27.3134174705 21.4819845801 50.2592388833
Fe 28.740361695 20.0460989801 48.7695027367
Fe 30.1317472259 21.5684023868 50.2511855452
Fe 31.5575252426 20.0786871459 48.7546387568
Fe 32.9949140055 21.4989099826 50.2585339985
Fe 34.4079055466 20.1445685123 48.8343360317
Fe 35.8879645752 21.5445115768 50.2780252913
Fe 37.324677568 20.0476935006 48.8474962573
Fe 38.6916006999 21.5078204018 50.221202818
Fe 40.1959667833 20.0971157996 48.8297388904
Fe 41.5817943608 21.4975218748 50.2291709662
Fe 42.9952132266 20.1079257522 48.7555938899
Fe 44.4811966044 21.4887483335 50.1821691277
Fe 45.8634322087 20.0614506853 48.7657449735
Fe 47.3031287441 21.5755813487 50.1785807655
Fe 48.7774997585 20.1139266011 48.7793410218
Fe 50.2600845183 21.5568110882 50.2614302852
Fe 51.6943239948 20.1022926999 48.8197655695
Fe 53.0716659973 21.5612274487 50.2296964577
Fe 54.5625205659 20.1324252518 48.7976405486
Fe 56.0124137237 21.5595358214 50.2354655289
Fe 0.0438141545 23.0159555819 48.8385506005
Fe 1.4799506631 24.4331563907 50.1899635142
Fe 2.8555970827 22.9784028811 48.7619360795
Fe 4.3569909682 24.3835974779 50.2621372221
Fe 5.7803656631 22.9399810537 48.8125233205
Fe 7.1794082703 24.3957367128 50.1729390295
Fe 8.5928094223 22.9764940455 48.7772843143
Fe 10.0777329382 24.3480994235 50.232989492
Fe 11.4968029928 22.9876105369 48.7327515708
Fe 12.8655148711 24.4463783077 50.2294222982
Fe 14.3969058563 22.9611859575 48.8307910611
Fe 15.8427605891 24.3591909738 50.2092195339
Fe 17.2230331372 22.9153290263 48.8084302986
Fe 18.6535071053 24.4237238026 50.1677739643
Fe 20.1193611801 22.9722345492 48.7846849296
Fe 21.5185326697 24.3812944965 50.2417460866
Fe 22.9863393811 23.0135064818 48.8314035456
Fe 24.3676755356 24.4160270252 50.2448126447
Fe 25.8802312812 23.007265671 48.7778400646
Fe 27.2976121948 24.349130047 50.18572508
Fe 28.6556090241 22.9921407736 48.7482948349
Fe 30.0862371074 24.4034998915 50.1810376986
Fe 31.5907351265 22.9417173175 48.7355414226
Fe 32.9699799533 24.4495856224 50.1944997974
Fe 34.4624759288 22.9120990852 48.8287050299
Fe 35.8716327263 24.4276552576 50.1827997196
Fe 37.3104746053 22.9131967073 48.7837740079
Fe 38.7454137442 24.4422063046 50.2231984238
Fe 40.2268360667 22.9866276919 48.8458372501
Fe 41.598751012 24.3941010621 50.1857781383
Fe 43.0418589642 22.9066721171 48.80133193
Fe 44.4526538746 24.3933884071 50.2428603386
Fe 45.9058580753 22.9419861427 48.7428944615
Fe 47.321888815 24.3719058395 50.2391713939
Fe 48.7401389313 22.9349392647 48.8390257328
Fe 50.2045222667 24.3515668237 50.1768838177
Fe 51.6741836713 22.9205844876 48.8328143653
Fe 53.1489546633 24.4471679962 50.267339562
Fe 54.5084955514 23.013528019 48.7484513908
Fe 56.0140324999 24.3892011813 50.1794699824
Fe 0.007331309 25.7813009422 48.7938649196
Fe 1.3978027201 27.2706757304 50.1924581673
Fe 2.8811658894 25.7856437797 48.8135479182
Fe 4.2981167948 27.3108169951 50.2791420588
Fe 5.7975039637 25.792986194 48.812936256
Fe 7.1774378202 27.2583823132 50.239146497
Fe 8.6511534147 25.8012540416 48.8375416869
Fe 10.0785083322 27.2364512847 50.2815951144
Fe 11.4429596401 25.857754675 48.7753233729
Fe 12.8635226726 27.2847394848 50.2246562416
Fe 14.3151864326 25.8628197837 48.7698973697
Fe 15.738715274 27.3073425368 50.2546743712
Fe 17.2431656899 25.7989529444 48.7958998969
Fe 18.6966931071 27.2256454424 50.2592250667
Fe 20.1456766263 25.8474177064 48.7430816187
Fe 21.5188290672 27.2523386045 50.1821747207
Fe 22.9822681936 25.799004044 48.7969147561
Fe 24.3903545187 27.3058363746 50.2061507539
Fe 25.8299125054 25.8597150846 48.7542097969
Fe 27.2709623921 27.2081879661 50.1990064856
Fe 28.701263223 25.8058677692 48.751522379
Fe 30.0864003016 27.2945715482 50.254746732
Fe 31.5815865232 25.8582010321 48.7903794726
Fe 33.0560142989 27.312810074 50.2116845423
Fe 34.4458250159 25.8396864191 48.7973026533
Fe 35.8664851341 27.3205071372 50.2685987854
Fe 37.2587966891 25.8027247493 48.7940414407
Fe 38.696967922 27.2844155979 50.267054582
Fe 40.2246755966 25.8015668744 48.769130042
Fe 41.6449732321 27.3128316062 50.2822696415
Fe 43.1005566744 25.8200881517 48.7561486515
Fe 44.5250238656 27.3189449595 50.2455959097
Fe 45.9497397182 25.8809788435 48.7870808416
Fe 47.3282263227 27.3054389843 50.1739518126
Fe 48.7711355198 25.8444066578 48.752929668
Fe 50.2576224707 27.2559455458 50.1970527486
Fe 51.6584873199 25.8348069608 48.7486462893
Fe 53.1156065434 27.3003869663 50.2482954064
Fe 54.5218306469 25.8456008142 48.8073439431
Fe 55.9666161951 27.272169531 50.2229155183
Fe 57.3599122852 28.7392836018 48.7684975279
Fe 1.462850601 30.0872984746 50.2495499242
Fe 2.8624257221 28.6711181659 48.7480436981
Fe 4.325626231 30.085578685 50.1677562623
Fe 5.7429898409 28.649795751 48.7809848711
Fe 7.1244401471 30.0825216126 50.2530403873
Fe 8.5631369855 28.6733266783 48.7484767777
Fe 10.0913636873 30.0821331861 50.1737028206
Fe 11.4416245349 28.6567251782 48.8271169612
Fe 12.9642110106 30.1912010905 50.2283487649
Fe 14.3076341599 28.7078832958 48.7590386921
Fe 15.8361041945 30.1838073601 50.1986899701
Fe 17.17850645 28.6578346616 48.8396449825
Fe 18.6335379776 30.104734088 50.205597199
Fe 20.0731913302 28.7274473211 48.7785948523
Fe 21.545085677 30.1297898298 50.2182700196
Fe 22.9499392762 28.7124457365 48.7889801488
Fe 24.4240209626 30.0973414565 50.2664664723
Fe 25.8870320637 28.6916597895 48.791642942
Fe 27.2236925164 30.1326321466 50.2545513821
Fe 28.756585899 28.6509018461 48.7719975871
Fe 30.1430142429 30.1498531899 50.2043090857
Fe 31.584378186 28.7109978693 48.7422465916
Fe 33.0506954652 30.1671621682 50.2786549902
Fe 34.4970969504 28.702441974 48.7713838513
Fe 35.8829971672 30.1435006329 50.2463719928
Fe 37.2737116563 28.7295291373 48.7989511005
Fe 38.7154825524 30.1400957752 50.2709891
Fe 40.1412053654 28.7104441515 48.7671677983
Fe 41.6337350836 30.1385016489 50.2565567053
Fe 43.1019308747 28.704824081 48.7548992355
Fe 44.4862046818 30.1459555548 50.2490098149
Fe 45.9593184739 28.7018897346 48.7837061843
Fe 47.3794956041 30.128706703 50.195167509
Fe 48.8276808231 28.7361888797 48.756931596
Fe 50.1702691804 30.1066732741 50.2403815929
Fe 51.6786631533 28.6842296846 48.7681873024
Fe 53.0571825725 30.1302156388 50.2605756467
Fe 54.5847334161 28.689890397 48.7874168408
Fe 55.9168117936 30.1283636847 50.189895564
Fe 0.03804964 31.5899068282 48.8459501814
Fe 1.4849509121 32.9534951565 50.2514644348
Fe 2.8262034412 31.5958638114 48.8475012465
Fe 4.3160900774 32.9633420226 50.2457563471
Fe 5.7225126768 31.5942500928 48.831352966
Fe 7.2270856704 33.002628771 50.2303724014
Fe 8.5940848503 31.5224010512 48.7670191621
Fe 10.0880742778 32.9841152147 50.2407884352
Fe 11.5004733861 31.6067790767 48.8142658007
Fe 12.8632086032 32.9812472378 50.1825488237
Fe 14.3206554236 31.5811459779 48.7666978366
Fe 15.7984154051 32.9656778851 50.1673993627
Fe 17.2042729337 31.5179040879 48.8420577346
Fe 18.6232770341 33.001386015 50.2626505585
Fe 20.0380462704 31.5166895718 48.7793395261
Fe 21.5782985252 33.0532469367 50.1692211407
Fe 23.0034614786 31.5523051517 48.8111556555
Fe 24.3883185333 32.9738620338 50.1916240337
Fe 25.7817773274 31.562729149 48.7435737149
Fe 27.2611125346 33.0574473502 50.2237889049
Fe 28.654316401 31.5238639169 48.7820002922
Fe 30.0924382594 32.9712603989 50.2076351066
Fe 31.5124828962 31.5592938779 48.8215545894
Fe 32.953310756 33.0359330339 50.2189928047
Fe 34.4815305189 31.6211108643 48.8367829432
Fe 35.8847903782 32.9934448655 50.2109362061
Fe 37.3045129826 31.5270573322 48.8402216626
Fe 38.7098330391 32.9792054282 50.2183514709
Fe 40.1462279692 31.5580252053 48.7786673103
Fe 41.5863092066 32.9833209643 50.2030373167
Fe 43.0966622773 31.6012383328 48.8379368226
Fe 44.5372787394 32.9570082994 50.2821161013
Fe 45.9381984688 31.5770507043 48.7536259649
Fe 47.3367285801 32.96678924 50.1897443556
Fe 48.8100390797 31.5136418165 48.8157561598
Fe 50.2451069954 32.971474556 50.2485979482
Fe 51.6206299141 31.5520748008 48.8475586041
Fe 53.1181537261 32.9596005918 50.2125730909
Fe 54.5228737872 31.6055672936 48.796008295
Fe 56.0216765746 33.0137601044 50.1956246427
Fe 57.3920055353 34.4782678755 48.7706920721
Fe 1.4747854121 35.8297937762 50.2603267321
Fe 2.812740864 34.4707737433 48.7763744123
Fe 4.3357449486 35.8681395717 50.2262170611
Fe 5.7132110167 34.4208999793 48.7574114522
Fe 7.1279771092 35.9253756624 50.2018253017
Fe 8.5745504401 34.4899620159 48.734546633
Fe 10.0501014128 35.843285684 50.212903257
Fe 11.4896968541 34.4439990331 48.7573821447
Fe 12.9040731423 35.8743306555 50.2462239323
Fe 14.3447877426 34.4578447176 48.7920588009
Fe 15.8147678112 35.8330525334 50.2486737197
Fe 17.1868303186 34.4403151971 48.8358446928
Fe 18.6036608287 35.8241655414 50.2730543604
Fe 20.095381903 34.4932628222 48.8395186139
Fe 21.511392911 35.8690016881 50.1979810214
Fe 22.9749540074 34.4871435787 48.8172792111
Fe 24.3920772167 35.8519968834 50.1943373469
Fe 25.8288784664 34.4497937776 48.8308802422
Fe 27.2794882447 35.8603588238 50.2001052627
Fe 28.6743692886 34.4629418202 48.8399133079
Fe 30.1578134454 35.8348209034 50.2060457542
Fe 31.600163218 34.3929322412 48.7781527367
Fe 33.0068579017 35.9109372529 50.1923664113
Fe 34.4547505475 34.4234958013 48.8373769824
Fe 35.8773724318 35.8951706919 50.2569158463
Fe 37.3512742892 34.4081235791 48.8292747053
Fe 38.7309746771 35.9029037769 50.2081909205
Fe 40.1837026956 34.4635012403 48.8383858909
Fe 41.6297417422 35.8538884313 50.1829158714
Fe 43.0954429408 34.4390960214 48.7819235146
Fe 44.4372977747 35.8527641052 50.2777954433
Fe 45.9612961085 34.4412642968 48.8378484786
Fe 47.3044471146 35.8915675934 50.2582897564
Fe 48.7595549887 34.4932828498 48.8401517502
Fe 50.2367130732 35.8556712998 50.1680063967
Fe 51.7064945478 34.40685878 48.8272687477
Fe 53.0783422944 35.84151294 50.2706533364
Fe 54.4896359226 34.4753287538 48.8120123168
Fe 55.9822039761 35.9315451455 50.1985037826
Fe 0.0315859581 37.264930806 48.7705312811
Fe 1.3925707008 38.7685904256 50.201357393
Fe 2.8601144466 37.3299655139 48.7323565382
Fe 4.2712034833 38.7175457875 50.1979397722
Fe 5.7861348532 37.2792508167 48.8127015012
Fe 7.141290259 38.789157786 50.192001906
Fe 8.6026011496 37.2890666376 48.7770020539
Fe 10.0550979843 38.6991347303 50.2026029282
Fe 11.5083174628 37.2933520085 48.7379677394
Fe 12.9129763306 38.7643269328 50.220545807
Fe 14.3028563045 37.3623271186 48.8217564999
Fe 15.7981472223 38.7070680524 50.1683356234
Fe 17.1846122365 37.2548782607 48.7713475406
Fe 18.6222600007 38.7042585609 50.2696590431
Fe 20.033199825 37.2674483577 48.7550657488
Fe 21.5212620043 38.8024644412 50.2446371695
Fe 23.0078573804 37.3047409333 48.8436311386
Fe 24.4381044707 38.740266918 50.2424431356
Fe 25.8289198873 37.2968955117 48.837148558
Fe 27.2260697501 38.7740462255 50.22074683
Fe 28.7565587519 37.3595610452 48.7577882649
Fe 30.099701573 38.7392201116 50.2826662689
Fe 31.5265732589 37.2561182908 48.8207330463
Fe 33.0036091187 38.7470723426 50.2263869965
Fe 34.4420639331 37.2702108915 48.8248923022
Fe 35.8955554518 38.7184805864 50.2222164889
Fe 37.3033256923 37.3567427204 48.753436272
Fe 38.7712537781 38.6880189554 50.2761371438
Fe 40.1247274147 37.3263501826 48.7549178654
Fe 41.5627723806 38.7494868935 50.2422105857
Fe 43.0467432482 37.3055307709 48.7791503641
Fe 44.4897045067 38.6998356258 50.2414797696
Fe 45.8985239584 37.3239475712 48.76039841
Fe 47.3131579888 38.744548585 50.2598482688
Fe 48.7880515656 37.3127720637 48.7359966136
Fe 50.2758633233 38.7643495432 50.168260143
Fe 51.6214944496 37.3140458082 48.7597699973
Fe 53.0408452979 38.7048208064 50.2313649509
Fe 54.5043686911 37.2694065943 48.7811493416
Fe 55.9516463469 38.7357058313 50.2282427049
Fe 57.3893953274 40.1469473958 48.7627377814
Fe 1.4054657791 41.6659062879 50.2538131452
Fe 2.8192045021 40.1230721889 48.8161843035
Fe 4.3137916841 41.6332677375 50.1808545913
Fe 5.6950082115 40.2094027046 48.7726435191
Fe 7.1298061977 41.5727787993 50.2591385499
Fe 8.5735331486 40.1721283332 48.8415733461
Fe 9.9936088582 41.6642819469 50.2497391785
Fe 11.4723718059 40.2170234375 48.8119658802
Fe 12.9299713006 41.6550283356 50.2615598787
Fe 14.3514064273 40.1753485666 48.7892586862
Fe 15.7376097157 41.5694673696 50.2046177816
Fe 17.1683993998 40.1367329284 48.796706298
Fe 18.6431408308 41.5693941815 50.24938044
Fe 20.095418845 40.1746273119 48.7500790734
Fe 21.4826138513 41.6540742008 50.2731330406
Fe 22.90553025 40.1985774089 48.8472006943
Fe 24.3902713306 41.5723479179 50.2655390721
Fe 25.8512287815 40.1478367573 48.7366110338
Fe 27.2349453919 41.6726777053 50.2360499636
Fe 28.7001248612 40.1560448419 48.8212682356
Fe 30.0785675588 41.567260009 50.2075475814
Fe 31.5409386775 40.1409978081 48.7459350969
Fe 32.9711712777 41.5987849235 50.1818045065
Fe 34.4292783208 40.137103533 48.8042873006
Fe 35.8872218065 41.6184890722 50.2669723668
Fe 37.3394302067 40.1880856756 48.8335866254
Fe 38.7814953314 41.6391095046 50.2369053709
Fe 40.1255585965 40.1734973975 48.8130586434
Fe 41.5847863261 41.6316701119 50.1875206822
Fe 43.0668306774 40.1624938732 48.7602372606
Fe 44.5213809905 41.5915235756 50.2617062029
Fe 45.8638760421 40.2345084501 48.7966463288
Fe 47.4015945464 41.5770024037 50.2010738809
Fe 48.7647542799 40.1732102826 48.7639281367
Fe 50.1838454763 41.6511363275 50.2487353075
Fe 51.7046783988 40.1293649413 48.8174207527
Fe 53.066422447 41.5801186156 50.2805796591
Fe 54.5187155191 40.2130270184 48.7402719996
Fe 55.9219086597 41.66757137 50.2498219698
Fe 0.0426059964 43.0139338817 48.841433764
Fe 1.4778287708 44.4781496032 50.1975004189
Fe 2.8150501775 43.0353780443 48.8028957792
Fe 4.3192076568 44.506566277 50.1747604038
Fe 5.7321452623 43.0045238577 48.8002366422
Fe 7.2186269585 44.4936539901 50.1995381012
Fe 8.5815668936 43.0597908762 48.8426579865
Fe 10.0519059653 44.4675858103 50.2627059446
Fe 11.5242472652 43.014098751 48.737499049
Fe 12.9507275125 44.496411181 50.1799128879
Fe 14.327690622 43.0643819274 48.7714585389
Fe 15.8146056428 44.4650275012 50.2160670385
Fe 17.2657263136 43.011362031 48.8053394534
Fe 18.6789097956 44.4820301954 50.2684439842
Fe 20.1463586656 43.0612581008 48.7748402403
Fe 21.5513682155 44.5293701475 50.2361035088
Fe 22.9272237246 43.076814313 48.7905624885
Fe 24.434559922 44.4380570039 50.1885383698
Fe 25.8657901921 43.1001380508 48.7369890822
Fe 27.2825635605 44.4326184258 50.2271463791
Fe 28.7567256424 43.0539017623 48.7797873888
Fe 30.083968675 44.5353649474 50.1980336232
Fe 31.569491801 43.0611685215 48.7512133142
Fe 32.9875273624 44.4566395403 50.2637271546
Fe 34.466938937 43.032460663 48.8420603649
Fe 35.905155077 44.5234317758 50.2234897366
Fe 37.2655129919 42.9988301625 48.8353982149
Fe 38.7086891553 44.5055672276 50.2743860119
Fe 40.1344736931 43.0690632621 48.7918906471
Fe 41.6449742276 44.5221095976 50.2301572618
Fe 43.0838852347 43.0165438876 48.8014413629
Fe 44.5048144621 44.5257120187 50.2569230954
Fe 45.9714069555 43.0607921379 48.7990784474
Fe 47.3175369457 44.5283779112 50.1951120609
Fe 48.7623535291 43.0302743742 48.7550706344
Fe 50.2420160088 44.4340868182 50.2101598634
Fe 51.6630362816 42.9973516031 48.7854568652
Fe 53.1451666754 44.5314993114 50.2515771
Fe 54.4848113555 43.052271056 48.7687959064
Fe 55.9304805144 44.4282600397 50.1712473375
Fe 57.3649744485 45.919576524 48.8297570809
Fe 1.4319179101 47.3585814308 50.210801371
Fe 2.9217721166 45.9055575172 48.8462499285
Fe 4.2875418382 47.410159254 50.2740695056
Fe 5.7102713674 45.9296499677 48.8178420537
Fe 7.1805114353 47.3745938336 50.2645215924
Fe 8.5914605027 45.9322363131 48.7987372992
Fe 10.0457401309 47.3092357747 50.2545712594
Fe 11.4285096157 45.9319919501 48.8399249281
Fe 12.879031669 47.320115549 50.2725052937
Fe 14.3786033768 45.9544511387 48.8114469261
Fe 15.7515589129 47.3443659357 50.2149404506
Fe 17.2419465045 45.9128963719 48.7390306799
Fe 18.6759424463 47.313612278 50.2641181757
Fe 20.1421384769 45.9722071992 48.8322154933
Fe 21.5717107271 47.3526330671 50.178887944
Fe 22.9263839487 45.9382193976 48.7888845051
Fe 24.3578372343 47.3799026517 50.2105068008
Fe 25.8028940398 45.9113286347 48.8132036647
Fe 27.2859625516 47.3122574452 50.2149223052
Fe 28.6613620723 45.8634299904 48.7544988609
Fe 30.1903710982 47.347061146 50.2448444406
Fe 31.560477144 45.975963127 48.7366134088
Fe 33.0381910967 47.4034876782 50.170591397
Fe 34.3976894161 45.923165585 48.8363532457
Fe 35.8566877892 47.3256305077 50.2670454998
Fe 37.2657835784 45.8992156805 48.8155460102
Fe 38.687706026 47.345146204 50.2159365304
Fe 40.1489641611 45.9006475524 48.7664259785
Fe 41.6549470849 47.3563122981 50.2496539922
Fe 43.0986256586 45.9333599317 48.7739381538
Fe 44.5046940793 47.3306202955 50.266770536
Fe 45.9189013827 45.8660090061 48.7588924007
Fe 47.3693504846 47.3700388713 50.2695770226
Fe 48.7984664793 45.9331839475 48.784712569
Fe 50.2721829637 47.2980447365 50.234881676
Fe 51.6323178765 45.9367631516 48.8458173403
Fe 53.0480120617 47.3574394341 50.2747207356
Fe 54.5576927966 45.9023780168 48.7538791687
Fe 55.952163114 47.301169383 50.2476947483
Fe 0.0395818976 48.7348767309 48.8148627946
Fe 1.4696501231 50.2443511454 50.2470015519
Fe 2.8529192799 48.7387274679 48.753427683
Fe 4.2874152801 50.2322498603 50.279275269
Fe 5.7901881459 48.8471768461 48.7915709741
Fe 7.2150909602 50.2549852552 50.2243388696
Fe 8.6231192229 48.7364157346 48.8363508382
Fe 10.0762080434 50.1847006399 50.2502731708
Fe 11.4244289071 48.8348331624 48.7856207262
Fe 12.897487313 50.2353867772 50.2093048952
Fe 14.3620546209 48.7428467511 48.817018457
Fe 15.8209169008 50.2773966159 50.2336741989
Fe 17.2051383311 48.7786818453 48.7802521109
Fe 18.6931812425 50.1911656609 50.1714686185
Fe 20.079537596 48.7692709777 48.8019349178
Fe 21.5154244011 50.1792770914 50.2062941074
Fe 22.9337810632 48.7362429944 48.780321931
Fe 24.3695492092 50.2798775995 50.2252125615
Fe 25.8589427713 48.7582912157 48.8005512188
Fe 27.2275332449 50.2010804146 50.2326542524
Fe 28.7072770317 48.7636603183 48.8434620969
Fe 30.1674443637 50.211319914 50.1863950805
Fe 31.5196103311 48.7915791341 48.8194487932
Fe 32.95804873 50.2483839177 50.2369692677
Fe 34.4565456959 48.7761306776 48.7738538259
Fe 35.8662449109 50.271951446 50.234188642
Fe 37.2861453795 48.8204225745 48.7509452205
Fe 38.6874632417 50.2562837548 50.2660015705
Fe 40.1707324605 48.7958525783 48.7881784231
Fe 41.6164652835 50.1833599545 50.2223825941
Fe 43.0606095989 48.7391729022 48.7853638479
Fe 44.4891624619 50.2153350338 50.2610914348
Fe 45.8994602768 48.7802474175 48.7836890638
Fe 47.3278121651 50.2200549507 50.1838299414
Fe 48.7368402168 48.7386837246 48.7778050223
Fe 50.265083441 50.1848426341 50.2533944872
Fe 51.7030698017 48.8092450836 48.8181163784
Fe 53.0490283714 50.2353862622 50.1759059233
Fe 54.4835769084 48.7698364641 48.8302115193
Fe 55.9292552787 50.2004955015 50.1765591929
Fe 57.376303578 51.6357497178 48.7996405573
Fe 1.4175827141 53.0949905002 50.222352082
Fe 2.8504782197 51.7066323973 48.8355305916
Fe 4.2768339159 53.0936169736 50.1977254923
Fe 5.7156309472 51.7103263027 48.8254188547
Fe 7.2206065078 53.0577551563 50.208177803
Fe 8.6383022651 51.6848746052 48.7916427795
Fe 10.0839923454 53.1321500749 50.2035542949
Fe 11.450291692 51.6309030013 48.7945352681
Fe 12.9127529829 53.0546204801 50.195549303
Fe 14.3486093197 51.6309767108 48.7375842045
Fe 15.7530077743 53.0646227242 50.2725675827
Fe 17.2624189704 51.6971658153 48.8251465319
Fe 18.6714505839 53.1512984706 50.2002284454
Fe 20.0583148283 51.6416185112 48.8449408615
Fe 21.5528129686 53.1413603164 50.202894536
Fe 22.9768218193 51.683910618 48.8179510884
Fe 24.4457797259 53.1416691601 50.215277584
Fe 25.8782156999 51.6365820609 48.8460583677
Fe 27.217225371 53.0463426994 50.2213815477
Fe 28.6541711348 51.6110389573 48.7345427244
Fe 30.1417077961 53.128474776 50.202254402
Fe 31.5898210673 51.6955512302 48.8050068474
Fe 32.9689718209 53.1438546764 50.27760517
Fe 34.4373525991 51.6334179295 48.7503493111
Fe 35.8431409325 53.0911165437 50.2376435081
Fe 37.3404269195 51.6033594093 48.7504799778
Fe 38.7593211347 53.1301344993 50.2451275278
Fe 40.1697415356 51.6293347583 48.8334920555
Fe 41.6151715502 53.0901765708 50.2699613801
Fe 43.0051531652 51.6114387437 48.8336955718
Fe 44.4692942227 53.1345049377 50.2035112623
Fe 45.9635150352 51.6210193289 48.8287843189
Fe 47.4103216526 53.1465234857 50.2239716166
Fe 48.8156083875 51.7162408357 48.7412794596
Fe 50.2259983948 53.1137009296 50.1923162961
Fe 51.61173053 51.6133964928 48.8172529688
Fe 53.1463417892 53.0779765213 50.1691687142
Fe 54.4950547522 51.6777646761 48.8142165332
Fe 56.0062128769 53.1026882394 50.2441158256
Fe 57.3931902681 54.4875869713 48.7695884085
Fe 1.4922950675 56.021475552 50.1947722734
Fe 2.8195151591 54.5737994024 48.7959164481
Fe 4.3449980663 55.9558739601 50.1834673844
Fe 5.7336061827 54.5432583967 48.8428645227
Fe 7.2297204258 55.9442463203 50.2067981919
Fe 8.6055842654 54.479042493 48.7450173078
Fe 10.0810555165 55.953438726 50.2026283558
Fe 11.5192290114 54.4803719658 48.8372030654
Fe 12.9699562516 55.9293915206 50.221862256
Fe 14.3559340933 54.4852478556 48.7506089574
Fe 15.7330990249 55.9649616473 50.1973466061
Fe 17.2334748866 54.5277205469 48.8469855648
Fe 18.6037051438 56.0213927793 50.2435134194
Fe 20.0567312474 54.5799335972 48.8227300671
Fe 21.5144217095 55.9335368944 50.1755288879
Fe 22.9093894881 54.4827058657 48.7953524181
Fe 24.4033004508 55.9403641263 50.2675238021
Fe 25.8867455453 54.5075625751 48.765812599
Fe 27.2155170315 55.927050961 50.1770403439
Fe 28.7099512016 54.5462272743 48.8235399812
Fe 30.1882443434 55.9552053234 50.2276973137
Fe 31.5146953585 54.579406589 48.7770430155
Fe 32.9847791864 55.9597844011 50.2688125078
Fe 34.3916962134 54.4928341852 48.8244073111
Fe 35.8796053108 55.9497726138 50.1755161068
Fe 37.2799218631 54.5798921942 48.7999900912
Fe 38.7086932194 55.992811543 50.1902007199
Fe 40.1374679632 54.4964084966 48.7429511769
Fe 41.6076680519 55.9388467856 50.1774926715
Fe 43.0720245131 54.5208845816 48.8387579403
Fe 44.4327143595 55.980760768 50.2066473646
Fe 45.9145305374 54.5507810638 48.8018442698
Fe 47.3308721726 55.9781666147 50.2712038888
Fe 48.8355082271 54.5837490357 48.7870903621
Fe 50.2649882484 55.9345237542 50.2682239929
Fe 51.6868880454 54.5032653259 48.7909065971
Fe 53.1304635838 56.008896924 50.2202305509
Fe 54.5699583471 54.5066947217 48.8088733662
Fe 55.9776314437 56.0105635417 50.2582207233
Fe 57.3743016562 0.0312489917 51.69944302
Fe 1.41949931 1.4653394575 53.0523345294
Fe 2.8427684185 0.0054943093 51.7176062796
Fe 4.3496736896 1.3806729773 53.0666157486
Fe 5.684409746 0.0213624923 51.6828413112
Fe 7.1892340431 1.3794716353 53.1262793086
Fe 8.6138311435 0.003370696 51.683142215
Fe 10.0182678726 1.4155624962 53.0821825955
Fe 11.463632106 0.0033999714 51.6892162703
Fe 12.8621142487 1.4916144257 53.1446760133
Fe 14.3143443745 0.0550310629 51.7060384136
Fe 15.8355189199 1.4226373223 53.131800629
Fe 17.2360769525 57.3501053258 51.7154559615
Fe 18.6350387573 1.3825165873 53.0490357401
Fe 20.0471426461 0.0393330003 51.7148993038
Fe 21.4715253788 1.4020112966 53.04126245
Fe 22.9473705964 57.37201874 51.6283362553
Fe 24.35531579 1.3869835599 53.1081176727
Fe 25.8723614491 57.3710505834 51.6737835355
Fe 27.3211949563 1.4426695633 53.1177427366
Fe 28.6784970829 57.3584129745 51.6778408164
Fe 30.1877915705 1.4471445864 53.0403941352
Fe 31.5141604941 0.0561708754 51.7061306742
Fe 33.0070971685 1.4825906716 53.0532873296
Fe 34.4315526172 57.3715691397 51.6255336473
Fe 35.8835922545 1.4536591658 53.1055402262
Fe 37.3617092614 0.0368748351 51.6078169443
Fe 38.7584397489 1.4890560367 53.0470967355
Fe 40.2009866214 0.0572321885 51.6075279045
Fe 41.5654337373 1.4614870854 53.0879270859
Fe 42.9975689552 0.0392526291 51.6863701366
Fe 44.5214495798 1.4590972776 53.1521246182
Fe 45.9370161884 57.3825314669 51.6230240296
Fe 47.3832178357 1.380322167 53.0922546745
Fe 48.8351749771 0.0333880563 51.7015209855
Fe 50.2531848272 1.4762869628 53.0405903858
Fe 51.6455114677 0.0261986591 51.7088423423
Fe 53.1206575229 1.3814878347 53.1495931781
Fe 54.5279409444 0.0340146692 51.6074993963
Fe 55.9126265532 1.4450774747 53.122238419
Fe 57.3771750637 2.8709454173 51.6888689363
Fe 1.4356107428 4.3232365765 53.0977403395
Fe 2.8127639354 2.8841390667 51.6049579982
Fe 4.3450632521 4.3087079806 53.1457563066
Fe 5.7361069482 2.9217822811 51.6027091596
Fe 7.1853890348 4.2695692256 53.0717407898
Fe 8.5660051025 2.8168633575 51.7055739409
Fe 10.0062758522 4.2791547938 53.1368897744
Fe 11.5173745262 2.8540956231 51.6489208327
Fe 12.9113527861 4.307840739 53.1021973516
Fe 14.3106796855 2.8464342675 51.656154425
Fe 15.7704698779 4.2543124779 53.0844204795
Fe 17.1668444512 2.9176484614 51.6852172375
Fe 18.6218839441 4.345171335 53.1442661137
Fe 20.0804430879 2.8780096394 51.6438065509
Fe 21.5674176476 4.2949314282 53.1276741211
Fe 22.9191918889 2.8625363116 51.693183241
Fe 24.3516536883 4.297866959 53.0868345646
Fe 25.8773479238 2.8393672621 51.615634385
Fe 27.2618569298 4.2738532985 53.0920993707
Fe 28.6635619555 2.8191261194 51.6573428487
Fe 30.0893905464 4.3430551558 53.1164972512
Fe 31.5957873304 2.9268454949 51.698169765
Fe 33.0534127869 4.3172016947 53.0773254172
Fe 34.4570495614 2.9158501053 51.6461165429
Fe 35.861308275 4.2507199741 53.1200360776
Fe 37.311483751 2.9005897652 51.6448220637
Fe 38.7273106487 4.3490686174 53.0540785211
Fe 40.1390654639 2.8855750847 51.6356159048
Fe 41.6411253209 4.3085764895 53.1130392802
Fe 43.0009205726 2.849313193 51.7022738695
Fe 44.4565233341 4.3066639483 53.1105013165
Fe 45.9476668707 2.8757177468 51.6156476262
Fe 47.3489517575 4.3059025419 53.0588527599
Fe 48.8410694742 2.9180651164 51.644864674
Fe 50.2548887919 4.2476721593 53.0604206848
Fe 51.7119477001 2.8387739893 51.6118167731
Fe 53.1142555567 4.3600956338 53.0958674192
Fe 54.5790861438 2.8282037447 51.6309668695
Fe 56.0133373283 4.294335394 53.0767974467
Fe 0.0338733427 5.7375245686 51.6099330676
Fe 1.4263858593 7.1987904004 53.050799925
Fe 2.8470491974 5.7644189277 51.6384411777
Fe 4.3619185291 7.2222554814 53.1199057534
Fe 5.797121496 5.7594506957 51.6181146073
Fe 7.1492971445 7.1329289341 53.1002901256
Fe 8.5953063024 5.6943501058 51.6137908892
Fe 10.059634034 7.1364918227 53.0989700374
Fe 11.5095287493 5.7502537064 51.621071259
Fe 12.9029744057 7.1786714193 53.0418265597
Fe 14.3281829328 5.7814091667 51.7022635772
Fe 15.8191426672 7.2093722838 53.0910510335
Fe 17.2360915967 5.7469631944 51.6371380416
Fe 18.6073262195 7.1327373334 53.0772017726
Fe 20.0776632581 5.7047602398 51.6481381059
Fe 21.477263389 7.1882361836 53.0717527028
Fe 23.0079254658 5.7310692931 51.6376263983
Fe 24.38029038 7.1989923091 53.0951904382
Fe 25.7728801963 5.7217764459 51.6627323425
Fe 27.2769307135 7.1365285201 53.0438794217
Fe 28.6564637543 5.7886874941 51.694757854
Fe 30.1629935275 7.1579762617 53.1169767724
Fe 31.5519974108 5.7795645486 51.663198977
Fe 33.0598142934 7.1429802153 53.1064800047
Fe 34.4361590497 5.783709435 51.6024286289
Fe 35.8516175535 7.2295497243 53.1118209559
Fe 37.3414630572 5.7905609837 51.6149965065
Fe 38.773355772 7.2103378701 53.1360678343
Fe 40.1862262866 5.7125169679 51.6162970785
Fe 41.6151410985 7.2283442438 53.0813898094
Fe 43.0250512291 5.7372488243 51.6344906713
Fe 44.5045350695 7.1782552459 53.1362384462
Fe 45.8950550145 5.7404996171 51.6520415669
Fe 47.3908915992 7.1216193394 53.146180596
Fe 48.8186540851 5.6897480377 51.65280182
Fe 50.221932568 7.1628949643 53.0722029535
Fe 51.6568316852 5.7187054478 51.6336907134
Fe 53.0600843455 7.1862367201 53.1390370099
Fe 54.5417175344 5.7917458351 51.6861003747
Fe 55.989101797 7.1287461774 53.1253824335
Fe 0.0038168532 8.570368718 51.7055454349
Fe 1.4899060906 10.0842283107 53.1277835435
Fe 2.8794786424 8.6109593946 51.6994780607
Fe 4.3346028645 10.0021957503 53.041246028
Fe 5.7724047013 8.6518196554 51.6567167816
Fe 7.1562785175 10.076331692 53.097760926
Fe 8.5534129037 8.6458589279 51.6603115663
Fe 10.0790201859 10.0644093929 53.1082981673
Fe 11.4833120061 8.6166433873 51.7042891513
Fe 12.9040287683 10.087418086 53.1039296818
Fe 14.3271901161 8.5546748534 51.6633310041
Fe 15.8306966646 10.0412107146 53.12225362
Fe 17.2636291679 8.6563769036 51.6503414203
Fe 18.6717090496 9.991820353 53.0879263656
Fe 20.0846509451 8.6211803179 51.7082917423
Fe 21.5725650116 10.0646932709 53.0990332541
Fe 22.9290755163 8.6385109441 51.6065034695
Fe 24.3427807301 10.078522369 53.0461195878
Fe 25.8803661877 8.601105951 51.6161093141
Fe 27.2850649937 10.0365208391 53.1410543226
Fe 28.6604519125 8.6455380034 51.7038640487
Fe 30.1405821925 9.9884763474 53.0922450312
Fe 31.5259033829 8.6375979758 51.6085860667
Fe 32.9483691605 10.0218255025 53.053934156
Fe 34.4336757573 8.5814318078 51.6334949113
Fe 35.8378425039 10.0259931498 53.1348019299
Fe 37.2882249686 8.5938706171 51.6373092003
Fe 38.7853665286 10.0598028216 53.1449285036
Fe 40.1828314059 8.5971669359 51.6140981884
Fe 41.6428409999 10.022764077 53.145405543
Fe 43.0795031611 8.64011693 51.6740188963
Fe 44.4512899648 10.0228047597 53.0596863368
Fe 45.864550868 8.5610636544 51.6083151584
Fe 47.3127136189 10.0283477247 53.0814813417
Fe 48.8047310244 8.5560779667 51.6844166539
Fe 50.1846780087 10.0826659167 53.1445219005
Fe 51.7058085901 8.602415466 51.6422502151
Fe 53.1281718326 10.0042535956 53.1176890144
Fe 54.5485376992 8.5633330407 51.6331388562
Fe 55.967763226 10.0782112187 53.0863089308
Fe 57.3846697485 11.5216585468 51.6508083505
Fe 1.4284004761 12.870150554 53.0882338867
Fe 2.8963013752 11.4748905639 51.6502913685
Fe 4.3542329635 12.8797981055 53.0737631608
Fe 5.7712315253 11.5275180037 51.6648723606
Fe 7.1217850999 12.9557743345 53.0524105471
Fe 8.6132528636 11.4820838438 51.6860444357
Fe 10.0710754433 12.8931024774 53.0405126554
Fe 11.4627627702 11.4413514594 51.632764223
Fe 12.9461121717 12.9171526165 53.1401880141
Fe 14.2930275249 11.4627545683 51.6225294418
Fe 15.7598475864 12.9446864276 53.1272059846
Fe 17.1819939822 11.4336349798 51.6641831201
Fe 18.6559294439 12.8751340608 53.0750298607
Fe 20.1085816462 11.4463094638 51.628713555
Fe 21.557014798 12.8798542733 53.146462558
Fe 23.0054062331 11.4902730453 51.6164444738
Fe 24.3903817869 12.9181471273 53.1267278741
Fe 25.8754866349 11.5142880808 51.6497023722
Fe 27.298230002 12.9328911191 53.0857143562
Fe 28.6603952561 11.5366722312 51.6050730375
Fe 30.0879272564 12.9557088238 53.0549286309
Fe 31.6043630552 11.5153152779 51.6616187559
Fe 32.9762561656 12.924402531 53.0657353381
Fe 34.4688804175 11.490851115 51.7176811119
Fe 35.8385442819 12.8676349912 53.0698856367
Fe 37.305832925 11.4909210227 51.6754918579
Fe 38.7647209981 12.9234792463 53.1485750828
Fe 40.2185428111 11.4517082894 51.6058785108
Fe 41.6544244299 12.9499247326 53.1321837946
Fe 43.0267151339 11.5039277091 51.6117156642
Fe 44.5418045485 12.8805145867 53.1145370671
Fe 45.9436099275 11.4644846328 51.6375544777
Fe 47.3077215658 12.9130130026 53.06120569
Fe 48.8251175023 11.4244589328 51.6864720695
Fe 50.2283225652 12.90141425 53.071075184
Fe 51.6678788406 11.4266671476 51.7169599716
Fe 53.1443028841 12.9017363956 53.0651512204
Fe 54.5514069177 11.5027770677 51.7074865293
Fe 55.969372727 12.9588710571 53.0743543661
Fe 0.0253120449 14.3621871666 51.622948069
Fe 1.3786606956 15.7367166737 53.0704533738
Fe 2.8260070712 14.3339310125 51.6512276462
Fe 4.3032705111 15.8346807332 53.0792828534
Fe 5.7361399435 14.2957666591 51.7026586237
Fe 7.2299409108 15.7896648669 53.1200203398
Fe 8.6530678434 14.382480048 51.6915652463
Fe 10.0211151836 15.7361626345 53.0773106306
Fe 11.445148335 14.3585504831 51.6177873442
Fe 12.8629711614 15.8114296323 53.0510721523
Fe 14.3973599967 14.3106599839 51.607341395
Fe 15.8271212591 15.83155884 53.0489565524
Fe 17.2157559913 14.2963050486 51.6211817636
Fe 18.7059304392 15.7840224424 53.1511437157
Fe 20.1162836829 14.3362208106 51.6287405885
Fe 21.5621946805 15.7928611692 53.0886677378
Fe 22.9989940475 14.3463030156 51.6188250476
Fe 24.4354051616 15.8029836302 53.1304008995
Fe 25.877530937 14.4032142888 51.6199032383
Fe 27.2248409155 15.7620571742 53.0901285083
Fe 28.6725237208 14.3154279409 51.632062515
Fe 30.1043186052 15.8011131098 53.0458838795
Fe 31.5470982153 14.3167294326 51.6383760777
Fe 33.0105266686 15.8386247595 53.0491202948
Fe 34.4539685375 14.2990636008 51.7005644845
Fe 35.8511109903 15.7648080204 53.0728614006
Fe 37.334024328 14.3371257793 51.6066320074
Fe 38.7757839987 15.7362622278 53.0668705082
Fe 40.2138816441 14.3338462181 51.6861610237
Fe 41.5627065781 15.7456101845 53.0515673148
Fe 43.0252223797 14.3215443806 51.668287073
Fe 44.4381894523 15.8113544825 53.0417755453
Fe 45.9525136833 14.3808838412 51.6743627167
Fe 47.3973796197 15.7465372016 53.0613320566
Fe 48.7404240108 14.3836473748 51.6954653106
Fe 50.2565151086 15.7569892766 53.1348593217
Fe 51.6072601184 14.356478324 51.6836206599
Fe 53.1160452316 15.8236683431 53.1368441879
Fe 54.5624823658 14.3708467434 51.6560434412
Fe 55.9448886215 15.7602376479 53.0574910849
Fe 57.3813042858 17.1671584853 51.6069036557
Fe 1.4087041929 18.690923777 53.0901418626
Fe 2.834374061 17.2574323026 51.7103758726
Fe 4.3002194408 18.7093560604 53.1074960253
Fe 5.7954043888 17.2122805437 51.6524364294
Fe 7.1731177384 18.6723415917 53.064114825
Fe 8.6530197292 17.1982392139 51.6200266918
Fe 10.0914978118 18.6952554078 53.1066678369
Fe 11.5309864844 17.1792670939 51.7145133083
Fe 12.9528237068 18.6667674763 53.0673304193
Fe 14.3225437242 17.2279302007 51.655725843
Fe 15.7554234847 18.6124766677 53.0861731091
Fe 17.2162269987 17.2667911892 51.714868732
Fe 18.6320071472 18.7014885336 53.0437681121
Fe 20.0863387027 17.1781501817 51.6379979191
Fe 21.5710244814 18.6599547461 53.0496147021
Fe 22.9257435107 17.2756865 51.6387636991
Fe 24.427186172 18.6943106537 53.1339170613
Fe 25.8406047423 17.2036086602 51.6198570925
Fe 27.2217013292 18.6761358021 53.0808426356
Fe 28.694608638 17.2332504713 51.6098256841
Fe 30.0793430897 18.671726942 53.1146729319
Fe 31.5198220136 17.2328083881 51.6312607388
Fe 32.976896128 18.7120656634 53.0391769938
Fe 34.4273906378 17.258513807 51.6155819763
Fe 35.8580197036 18.622491078 53.1360314262
Fe 37.3336179018 17.2202012754 51.6587343013
Fe 38.7728715432 18.7095780133 53.0597338263
Fe 40.2095682132 17.2353475436 51.6845515059
Fe 41.5952449619 18.681305351 53.0866035347
Fe 43.0413061173 17.2616534914 51.6183287846
Fe 44.4858186523 18.6616776433 53.1269512457
Fe 45.9152781084 17.2213282598 51.6311658324
Fe 47.3903522458 18.7096366142 53.0525701718
Fe 48.8201239079 17.2687534725 51.6464736326
Fe 50.1968692857 18.6953814217 53.0641964686
Fe 51.6066097036 17.2607666287 51.6963880895
Fe 53.0519959561 18.6502005887 53.083645336
Fe 54.5505571992 17.2658401348 51.6478885135
Fe 56.0082122128 18.6384078712 53.1263611907
Fe 57.3596843814 20.0573395435 51.6364102451
Fe 1.4784035945 21.5723889716 53.1277533013
Fe 2.8392322941 20.1128674437 51.6329399843
Fe 4.3245232244 21.4790192331 53.1442062081
Fe 5.7466006106 20.0760445559 51.6453320505
Fe 7.2281769523 21.5717838095 53.1088699908
Fe 8.6317528943 20.0998392998 51.7005060415
Fe 10.0221462695 21.5526023182 53.0757884672
Fe 11.5163240779 20.1248221758 51.7092633079
Fe 12.8679636789 21.4842885834 53.109735952
Fe 14.3372806431 20.0452551199 51.7073830435
Fe 15.7809214104 21.5408429646 53.1094216572
Fe 17.165609847 20.0740410094 51.7040565097
Fe 18.5985219184 21.5699748761 53.0666824853
Fe 20.0783976625 20.0750708802 51.6591248177
Fe 21.4707804122 21.4701565367 53.0798326539
Fe 22.9502921081 20.1238929411 51.7154302801
Fe 24.417043915 21.498076901 53.0396463988
Fe 25.7742980796 20.0743748048 51.6839851439
Fe 27.210942772 21.4848325097 53.1345830458
Fe 28.7017053984 20.0605924268 51.6772011871
Fe 30.1166385959 21.5028113973 53.1452243924
Fe 31.572705148 20.141199179 51.6739540436
Fe 32.9818798624 21.5495035457 53.1044061169
Fe 34.448604435 20.1308963321 51.6076726296
Fe 35.8375115437 21.509478319 53.1308453847
Fe 37.2735976291 20.1410705249 51.6115366411
Fe 38.7202993921 21.5236201578 53.0994144245
Fe 40.1435878803 20.1181658353 51.7023540987
Fe 41.6537567836 21.5380937014 53.0917222119
Fe 43.0485984758 20.1170685504 51.7121800769
Fe 44.4945621183 21.5692051454 53.0526998693
Fe 45.9288399476 20.0400273038 51.690145999
Fe 47.3082587966 21.54669426 53.0853207309
Fe 48.7741614705 20.0678852951 51.6616198261
Fe 50.2610597251 21.4725055665 53.0702157947
Fe 51.6502716132 20.0490089603 51.6991734134
Fe 53.0502457693 21.5397116631 53.1279374311
Fe 54.5537344031 20.102637457 51.6608578401
Fe 55.9534496946 21.5775666931 53.080496944
Fe 57.3433226756 22.9489622671 51.7034785336
Fe 1.4355178386 24.4130950911 53.083722204
Fe 2.8817410738 22.912288974 51.7094863912
Fe 4.3102259091 24.4288485697 53.0457724669
Fe 5.7464593864 22.9718457877 51.708547432
Fe 7.1495981667 24.3552787839 53.0722045184
Fe 8.5872676589 23.0151612642 51.6912846851
Fe 10.0141316761 24.3812484971 53.0412729379
Fe 11.4312749197 22.9250988084 51.6489015942
Fe 12.8933826292 24.4174205184 53.078594208
Fe 14.3050605181 22.9149346962 51.6692896289
Fe 15.7555493158 24.4294944154 53.1224685174
Fe 17.262502963 22.9041615435 51.6941451249
Fe 18.6237321451 24.3689357984 53.0563350953
Fe 20.0918982177 22.9870818785 51.6822528531
Fe 21.5355350805 24.4025657158 53.1207322609
Fe 22.9716873085 23.0124563658 51.653062813
Fe 24.4258837146 24.3560516089 53.0788113208
Fe 25.8784109772 22.972362012 51.702557819
Fe 27.2885130955 24.4201175653 53.0734219946
Fe 28.6991369946 22.9500088455 51.6237204602
Fe 30.1113919142 24.3382052483 53.0765429818
Fe 31.539773494 23.0163578703 51.7076844207
Fe 32.9544368351 24.4409626246 53.0725756614
Fe 34.4753021715 22.9572248001 51.6524609143
Fe 35.8312971511 24.3722522703 53.1355074511
Fe 37.3668741816 22.9474073701 51.6459303346
Fe 38.7845168188 24.3385876682 53.0505027001
Fe 40.2305882747 22.9617037536 51.6854698607
Fe 41.6367252245 24.4067410985 53.1428216029
Fe 43.1053869034 23.015342779 51.6265189274
Fe 44.4687358143 24.365446892 53.1044153212
Fe 45.9727822634 22.9967729722 51.6982484858
Fe 47.3102886131 24.3706246473 53.1080306688
Fe 48.7595925053 22.9561603424 51.6097334736
Fe 50.2140674073 24.4188736365 53.1001622692
Fe 51.6896281785 22.9398322693 51.6690583952
Fe 53.0539832831 24.4396063435 53.1340212503
Fe 54.5516389206 22.9980618854 51.7032645313
Fe 55.9678936381 24.3523783875 53.1273306789
Fe 0.0148073504 25.8103912818 51.6186979169
Fe 1.4562352069 27.2554970139 53.0892536331
Fe 2.9144162949 25.7789728342 51.6995085077
Fe 4.3156863165 27.2754260379 53.1054323047
Fe 5.7073271754 25.8514095535 51.7043444844
Fe 7.1436398965 27.2409635387 53.1134337106
Fe 8.6490826639 25.821311045 51.6927641385
Fe 10.0946901251 27.3001785036 53.0796303039
Fe 11.4717493057 25.8190524653 51.6398742711
Fe 12.9098589306 27.2087769942 53.0651846126
Fe 14.3219086488 25.8380873907 51.6832314913
Fe 15.771942239 27.2732430642 53.0614340718
Fe 17.252084424 25.8167036866 51.6869849478
Fe 18.6483854429 27.2578258026 53.0388499719
Fe 20.0495489717 25.8140007477 51.6690965948
Fe 21.5685203685 27.2404051365 53.1215942098
Fe 23.0050232654 25.8094132743 51.6510501048
Fe 24.4506753706 27.3123535312 53.1285712361
Fe 25.8798566217 25.8340800281 51.6448751068
Fe 27.2897220466 27.3148930055 53.0892463159
Fe 28.6989224578 25.8153700845 51.6087596252
Fe 30.0831928621 27.3023258371 53.1215279516
Fe 31.6209973047 25.8136666675 51.6636368383
Fe 33.0093892359 27.2342625857 53.1396845659
Fe 34.4912129432 25.7980595114 51.6886053426
Fe 35.8337921592 27.278956829 53.0379949499
Fe 37.3331398693 25.7908026498 51.6618259626
Fe 38.7704586629 27.2261842847 53.0990716929
Fe 40.2075784584 25.8733608523 51.666140448
Fe 41.6690989102 27.2455627967 53.1021367461
Fe 43.0294669454 25.8004139001 51.6971258961
Fe 44.537082499 27.2416600126 53.0710167078
Fe 45.864924248 25.8179163026 51.6036101875
Fe 47.3074560276 27.3214952548 53.1235290956
Fe 48.8015440432 25.820687438 51.7032246367
Fe 50.232600907 27.3057345446 53.1019674653
Fe 51.6458916594 25.8418909895 51.6795574495
Fe 53.0822808482 27.2455933739 53.1423599499
Fe 54.5180581805 25.7814536684 51.7061805824
Fe 55.9992205998 27.3000990563 53.1222923804
Fe 0.01746596 28.7166023231 51.6058981755
Fe 1.4548928098 30.1697323952 53.0636644084
Fe 2.877396141 28.7531397548 51.6733080953
Fe 4.3523276794 30.1361827273 53.1152498256
Fe 5.7598499327 28.6670993625 51.6619204113
Fe 7.1535364122 30.1593686711 53.1279849756
Fe 8.6109457802 28.7573239216 51.6721630464
Fe 10.0964023186 30.1740451968 53.1348561228
Fe 11.5212968179 28.7562882928 51.6330935421
Fe 12.9273044586 30.1409552239 53.0632027054
Fe 14.3068419463 28.7027662735 51.6861438597
Fe 15.7989587625 30.1570187125 53.0983545964
Fe 17.1874988491 28.7020929423 51.6819900392
Fe 18.6062366714 30.0994686415 53.081954193
Fe 20.0563716251 28.6424831459 51.6298865206
Fe 21.5623938141 30.1055269715 53.1018221102
Fe 22.9451590157 28.7087645689 51.6705339317
Fe 24.3820181522 30.1064427669 53.0589412733
Fe 25.8605010901 28.7195951786 51.614823789
Fe 27.2685580834 30.1471462225 53.1113048398
Fe 28.670606141 28.662943819 51.681103127
Fe 30.1753402225 30.1434143695 53.0898527688
Fe 31.5957656823 28.6752842626 51.6266309844
Fe 32.9961379084 30.1715407682 53.0574911688
Fe 34.4400685495 28.737954822 51.679466984
Fe 35.8832298276 30.1582955455 53.0869464041
Fe 37.3677365359 28.7500231633 51.706765312
Fe 38.7643615205 30.1195188246 53.0731268064
Fe 40.1510499479 28.6912938998 51.6518605523
Fe 41.6610510175 30.1125238635 53.0531137117
Fe 43.0803533378 28.6634656564 51.6925347346
Fe 44.5411781237 30.1268194072 53.1041752818
Fe 45.9034561014 28.6994946121 51.6447287553
Fe 47.3107792225 30.1294491608 53.1029493003
Fe 48.8012506476 28.6901514248 51.6514995208
Fe 50.1716000817 30.0911499783 53.1087898323
Fe 51.659703321 28.754791485 51.6775011851
Fe 53.0803212991 30.1393034296 53.1321815481
Fe 54.5739287169 28.7065313344 51.707237069
Fe 55.9564277172 30.1337505575 53.0839049355
Fe 57.3620222097 31.5201956675 51.6995308571
Fe 1.4499500637 33.0237896018 53.1228441018
Fe 2.8639394856 31.5632057317 51.6849715812
Fe 4.2962864257 33.0591272327 53.1004173499
Fe 5.7445704101 31.5263222212 51.6615814068
Fe 7.1503516085 33.006678557 53.0592895882
Fe 8.5860401589 31.5683138191 51.6856248447
Fe 10.0057039676 32.9649619505 53.0503892453
Fe 11.4414320268 31.6081922188 51.6201669852
Fe 12.8642280635 32.9629410731 53.1407798194
Fe 14.3101699922 31.5664861472 51.6375607015
Fe 15.787435635 33.0477580223 53.1231670562
Fe 17.1979852541 31.5850393211 51.7042548979
Fe 18.6108064889 32.9824174372 53.0620913014
Fe 20.034303078 31.5607405882 51.6159110526
Fe 21.5348356572 33.0260614576 53.0543717126
Fe 22.9596264476 31.5881286135 51.6454975295
Fe 24.3793402151 33.0413298936 53.0401104727
Fe 25.8654592292 31.5733972202 51.6567057
Fe 27.3112516993 32.9614336471 53.1168124496
Fe 28.7054801802 31.620229441 51.6127068994
Fe 30.1711555624 33.0435155315 53.0997658583
Fe 31.537237237 31.6209398341 51.612768869
Fe 32.9645080045 32.9500294928 53.1233877902
Fe 34.3872168365 31.539859476 51.6092865213
Fe 35.8427702013 33.0389231758 53.064601919
Fe 37.2691900614 31.6069576124 51.6574339185
Fe 38.711216446 32.9676523384 53.0865409477
Fe 40.2265269334 31.5308692436 51.6193926669
Fe 41.6068248693 33.0521520405 53.061741659
Fe 43.0399214267 31.5516569309 51.6966163738
Fe 44.5238138385 32.9880198007 53.0677767175
Fe 45.9392355886 31.5330039107 51.7137217272
Fe 47.3147411624 33.0015656568 53.145424328
Fe 48.7572383675 31.5246600515 51.6155993511
Fe 50.2765747777 33.0553571886 53.104724865
Fe 51.6050630421 31.6042515391 51.6849548688
Fe 53.0444058915 32.9501735419 53.0523923448
Fe 54.5816648806 31.6164225349 51.6325048447
Fe 55.9872122693 33.0548215582 53.1462121436
Fe 57.3577699312 34.4705373173 51.7152339969
Fe 1.4384454948 35.8951610222 53.1495436638
Fe 2.8788489967 34.4118622543 51.6574914739
Fe 4.3600700928 35.92520701 53.0845519716
Fe 5.7176947788 34.4757116283 51.6068000457
Fe 7.1198946943 35.8682525687 53.0920365503
Fe 8.565993566 34.4869274748 51.6458284643
Fe 10.0583743153 35.8806264291 53.0693338613
Fe 11.4508578292 34.3971530656 51.7028859516
Fe 12.9245404087 35.8993914609 53.05379901
Fe 14.3624461362 34.4955460423 51.6809223973
Fe 15.7627018784 35.8766601651 53.1189127908
Fe 17.1694170882 34.4387430458 51.7005819536
Fe 18.6433060685 35.9031183783 53.1121265547
Fe 20.0983116699 34.4959163181 51.6385333262
Fe 21.488904078 35.8810289967 53.1519256362
Fe 22.9158424867 34.4157160802 51.690848416
Fe 24.3581467533 35.9294460278 53.13656314
Fe 25.8027574126 34.4017171427 51.6655613362
Fe 27.270035696 35.8212042083 53.1433925697
Fe 28.710339346 34.4097248164 51.6919809736
Fe 30.1006567503 35.8635463253 53.0943058774
Fe 31.5715427437 34.4828486554 51.615000347
Fe 32.9557942739 35.8571807875 53.13324671
Fe 34.4737571106 34.441690983 51.6066351041
Fe 35.8553706579 35.8415716559 53.0864007185
Fe 37.2779631281 34.393504504 51.6903961364
Fe 38.7265040031 35.8636817039 53.0962132002
Fe 40.2078258994 34.3841924475 51.6913086961
Fe 41.6711900053 35.8656844624 53.0711660397
Fe 43.0529992442 34.4774657922 51.6818205713
Fe 44.5423955507 35.8745035294 53.0608570712
Fe 45.9068940478 34.4717166264 51.6883385204
Fe 47.3216834885 35.9122355361 53.0378840379
Fe 48.7498816268 34.3919141439 51.6159548586
Fe 50.1983854278 35.8300156575 53.0632011418
Fe 51.6201448814 34.4669429498 51.6303745219
Fe 53.1341458871 35.8996594538 53.130531325
Fe 54.5170906576 34.4695304548 51.6611356404
Fe 55.9893776198 35.8433809384 53.0640665279
Fe 57.3915306033 37.3441376246 51.7017952602
Fe 1.39491652 38.7872442613 53.0651584135
Fe 2.8508007329 37.3577512727 51.6413465719
Fe 4.3284064282 38.7382705864 53.1316498377
Fe 5.791617104 37.3456478477 51.6679472641
Fe 7.1712617958 38.7979013763 53.0980032885
Fe 8.6547091086 37.3035223393 51.7034584577
Fe 10.0982702776 38.7937778987 53.1468419935
Fe 11.436826657 37.2921114042 51.6216684809
Fe 12.9657851799 38.7544532799 53.125016674
Fe 14.402582667 37.3450415302 51.6266057948
Fe 15.7686825593 38.7263721048 53.1000061246
Fe 17.219705264 37.2744365388 51.7105941884
Fe 18.6923864215 38.7188684067 53.1452119276
Fe 20.1044248819 37.2907240032 51.7088586433
Fe 21.5177428301 38.7993885189 53.1012257556
Fe 23.0008347529 37.3436324101 51.7018153788
Fe 24.3690353543 38.7522368015 53.0581107418
Fe 25.8752560884 37.3477692498 51.6965740374
Fe 27.3210352937 38.721759656 53.0774089693
Fe 28.7333023482 37.322215376 51.6638341017
Fe 30.0894033357 38.728532736 53.0486736236
Fe 31.5277143208 37.2766122452 51.692054439
Fe 33.0428080967 38.7335964735 53.0475236796
Fe 34.4102367244 37.3422071615 51.6864545893
Fe 35.8676535651 38.7003973965 53.0893625834
Fe 37.3047467626 37.2802074085 51.6222304442
Fe 38.733232566 38.7529587493 53.0490440437
Fe 40.157942475 37.2910164564 51.6858105972
Fe 41.6434622608 38.7569238913 53.0745362498
Fe 43.0368655176 37.2964603122 51.6923734751
Fe 44.452501006 38.799514091 53.0899885323
Fe 45.9550801115 37.3212260084 51.7050253661
Fe 47.394829607 38.7077568272 53.0697244302
Fe 48.7698605334 37.3299150347 51.6397032391
Fe 50.265619843 38.7048614308 53.1526888558
Fe 51.6981839784 37.3516347031 51.6284867153
Fe 53.0516517224 38.7094226722 53.1276315977
Fe 54.583838199 37.2720051601 51.6035582312
Fe 55.931254732 38.6996229389 53.1375680205
Fe 0.0374370503 40.2158894535 51.6744657047
Fe 1.3906726727 41.6234218964 53.056491366
Fe 2.9184521621 40.1802320167 51.6181422641
Fe 4.3042852327 41.5710760074 53.102409298
Fe 5.7048112505 40.1726885409 51.6317164412
Fe 7.1878977095 41.610175286 53.0930683097
Fe 8.6582500996 40.1491705475 51.6796255268
Fe 10.0756619918 41.5986970872 53.0956335279
Fe 11.496301747 40.1548236674 51.654245117
Fe 12.9594995675 41.6110648881 53.0863401718
Fe 14.314109204 40.1276400342 51.7061772176
Fe 15.7411755159 41.6604206854 53.0779627681
Fe 17.1806939432 40.124650685 51.646951831
Fe 18.6327106711 41.6564510639 53.1024217075
Fe 20.1223701088 40.1974734897 51.6377755027
Fe 21.4836642587 41.6044748239 53.0449292923
Fe 22.9736395554 40.1647147804 51.6221343645
Fe 24.367792667 41.6131827627 53.0676925951
Fe 25.879184676 40.1574899236 51.7159383199
Fe 27.2778765617 41.6143845698 53.0467197806
Fe 28.6955248643 40.1642716142 51.6098179315
Fe 30.1160622408 41.6024872715 53.1309951958
Fe 31.5952422002 40.2324938221 51.7086328928
Fe 32.9975654701 41.6020768089 53.0806658355
Fe 34.4422685797 40.1743591836 51.6571968307
Fe 35.9035160412 41.5701774484 53.1106533708
Fe 37.3534220413 40.1938216226 51.6865385268
Fe 38.7492159339 41.5863250702 53.1500514055
Fe 40.1371351609 40.2109815431 51.6739048725
Fe 41.6575579732 41.6045725235 53.0609633423
Fe 43.0230864161 40.1856313518 51.6208793452
Fe 44.4601725581 41.6304734225 53.0837836875
Fe 45.9579305401 40.1963767854 51.7122285358
Fe 47.3461062471 41.6062234101 53.0824743203
Fe 48.829393715 40.1867590895 51.6479291949
Fe 50.2089611005 41.5958153209 53.1168545479
Fe 51.6551932379 40.1648089422 51.6325633016
Fe 53.0749430087 41.6462766042 53.1054103865
Fe 54.4860976494 40.2030982192 51.6624055181
Fe 55.9555290583 41.6296098609 53.104754627
Fe 0.0157683621 43.0814731521 51.6970313221
Fe 1.4478430319 44.5288869376 53.1495065276
Fe 2.8716727921 43.0738389516 51.6246291195
Fe 4.3069198417 44.5419492257 53.13240162
Fe 5.6950889724 43.0742962997 51.640550166
Fe 7.2173096651 44.5028031931 53.1508945501
Fe 8.5971591053 43.0961493625 51.6732301526
Fe 10.0444261846 44.4528196167 53.1488407521
Fe 11.4597577984 43.0330668657 51.6521768314
Fe 12.9598827216 44.4755137565 53.1519689316
Fe 14.3605381194 43.0484094038 51.6182248807
Fe 15.7375350797 44.4857416838 53.1151628671
Fe 17.2391736733 43.0315759369 51.6417920627
Fe 18.6464357837 44.4644869586 53.0990943151
Fe 20.1131172328 43.0680214922 51.6368730227
Fe 21.541048674 44.4907775562 53.0464631629
Fe 22.9865691998 43.0079360807 51.6511768049
Fe 24.3686203424 44.5090160276 53.1323740748
Fe 25.8571155366 43.0514880745 51.7074434385
Fe 27.2807587887 44.443638074 53.0833603083
Fe 28.6776548072 43.0961415408 51.6975171368
Fe 30.1102764172 44.4404814679 53.0739524713
Fe 31.5777978926 43.0235316008 51.6296850429
Fe 32.9705835213 44.4828164561 53.0799316727
Fe 34.4518514274 43.0212263707 51.6423246557
Fe 35.8576685668 44.5241055142 53.0627984789
Fe 37.2569861222 43.0187735099 51.6951235993
Fe 38.7232922162 44.4615195955 53.1329297234
Fe 40.2187450397 43.0566429387 51.6820502688
Fe 41.5936387063 44.4859111279 53.0533254235
Fe 43.0983899242 43.0967275919 51.6482764653
Fe 44.4647855717 44.4910507256 53.058608217
Fe 45.9204395143 42.9943265417 51.6834127536
Fe 47.3586815765 44.4655858949 53.0889133591
Fe 48.8418227065 43.0306584021 51.6576913397
Fe 50.2632396466 44.479929494 53.1414609568
Fe 51.6438787043 43.0645956445 51.605083848
Fe 53.074713526 44.5246462964 53.0444685689
Fe 54.4939177019 43.0587642626 51.6288363982
Fe 55.9995656086 44.5104529412 53.127961534
Fe 0.0234447171 45.8966115311 51.6597255844
Fe 1.3851023951 47.4070274572 53.1048502108
Fe 2.8609262011 45.8734112193 51.6050154969
Fe 4.2607089674 47.3986608023 53.1186013389
Fe 5.7289594952 45.8768150936 51.659288444
Fe 7.1891963942 47.3552218066 53.0745143634
Fe 8.5585028865 45.9469740411 51.6820344024
Fe 10.1002519541 47.3421423601 53.1358373378
Fe 11.4745467873 45.8757902667 51.6133510646
Fe 12.8633887856 47.3657052368 53.0409856258
Fe 14.3067883383 45.9074511851 51.6077092213
Fe 15.7863405735 47.3536330538 53.1190629451
Fe 17.2363409822 45.8671118659 51.7045948608
Fe 18.6939343734 47.3600970899 53.0893728659
Fe 20.0750820662 45.9092792834 51.704638001
Fe 21.4772809413 47.3926177762 53.0397832038
Fe 22.9432183312 45.9197163604 51.6541606623
Fe 24.3836048828 47.3914957683 53.0748777664
Fe 25.8640421801 45.9134193742 51.6198708434
Fe 27.2212787984 47.35701084 53.1512657248
Fe 28.7490086277 45.9755954058 51.6086555433
Fe 30.0793395363 47.3064526591 53.1293458811
Fe 31.5198675457 45.8942391781 51.7160148235
Fe 32.9527482722 47.3033986118 53.0413559066
Fe 34.3843894803 45.8950315012 51.6464672186
Fe 35.880395788 47.3344864149 53.0750131891
Fe 37.2993243442 45.9470432438 51.6715015223
Fe 38.6927022189 47.3141465661 53.0536647904
Fe 40.1555876872 45.8711799779 51.7090104688
Fe 41.6562050563 47.2978140412 53.1497421077
Fe 43.020848406 45.8756000987 51.6329922194
Fe 44.512576528 47.3224775441 53.0696412775
Fe 45.9162346121 45.9223934664 51.6679627928
Fe 47.3891586519 47.3591760707 53.0746567159
Fe 48.7424208953 45.9133072443 51.6846887608
Fe 50.2642246181 47.3268724463 53.0882849342
Fe 51.6606104945 45.8670886726 51.7013295207
Fe 53.1106808674 47.3433132335 53.0613132739
Fe 54.5363956481 45.9380267446 51.637410003
Fe 55.9693951638 47.3278733176 53.118207182
Fe 0.0550983913 48.8424252216 51.6503136501
Fe 1.4220819076 50.2437763639 53.1140249457
Fe 2.8667483715 48.7478417264 51.6069262784
Fe 4.3342965294 50.1973168786 53.1247463944
Fe 5.7019860473 48.7943203366 51.6119573717
Fe 7.1235299408 50.2098711805 53.0833692455
Fe 8.6447349118 48.8247902493 51.6773339207
Fe 10.0935207485 50.199757113 53.1057424717
Fe 11.4233225951 48.7907153309 51.608101592
Fe 12.9650144491 50.2414002587 53.127003968
Fe 14.3352838043 48.7981973284 51.6785755586
Fe 15.7866945691 50.2638512229 53.1391359626
Fe 17.2745988943 48.8408023717 51.6033947995
Fe 18.6249182837 50.1955648729 53.0389341131
Fe 20.1436709891 48.7506677841 51.7174609953
Fe 21.5651875841 50.1785156245 53.1296826467
Fe 22.9162276513 48.8473110507 51.6577256284
Fe 24.3996835164 50.2025833276 53.085274608
Fe 25.8623319681 48.818511877 51.602827072
Fe 27.3101076226 50.1887394181 53.0816935284
Fe 28.7513104835 48.8191365744 51.649782609
Fe 30.0910844524 50.2138499287 53.1195196034
Fe 31.593792955 48.7813545082 51.6927835993
Fe 33.0037972196 50.2173855985 53.0453967405
Fe 34.4727250459 48.8189834968 51.6571956259
Fe 35.9021962736 50.2672384194 53.1414099059
Fe 37.3446956838 48.7937744083 51.6073801807
Fe 38.7667728182 50.2681391527 53.1381940378
Fe 40.1495552528 48.7683550417 51.7100949671
Fe 41.6104831599 50.2506914775 53.0389494099
Fe 43.0452189153 48.7683448604 51.7043659683
Fe 44.509463745 50.2314753642 53.0677956632
Fe 45.9352682126 48.7893611691 51.6278661044
Fe 47.4011665295 50.1976011307 53.1108296944
Fe 48.8090681023 48.8390524684 51.6345571733
Fe 50.2333917099 50.2277964688 53.0882318579
Fe 51.6278386482 48.8121710072 51.6653228325
Fe 53.1415893676 50.2438517218 53.0501508455
Fe 54.5520436043 48.7669609657 51.7106542814
Fe 55.9687773794 50.2451414457 53.0780661079
Fe 57.3452804909 51.6532916154 51.6579175379
Fe 1.3832000555 53.0479933699 53.1487787755
Fe 2.8726357237 51.6638286913 51.6370190532
Fe 4.3091410391 53.0782999079 53.0962080937
Fe 5.726626965 51.632366522 51.6756159524
Fe 7.1589652191 53.1519407697 53.0553527188
Fe 8.6019845945 51.6493514576 51.6691080616
Fe 10.0972528813 53.040304807 53.1010963249
Fe 11.4803966167 51.7043062358 51.6865792132
Fe 12.879325171 53.0634599244 53.1495882686
Fe 14.3119005802 51.6192685701 51.6030180207
Fe 15.8163539819 53.0531099371 53.0824706858
Fe 17.2022196959 51.7035403702 51.6267007391
Fe 18.6380190258 53.0877160521 53.1465195986
Fe 20.0351286622 51.6196357993 51.6894348756
Fe 21.5762687546 53.1415709962 53.1446596231
Fe 22.9091765066 51.6361728011 51.6310960993
Fe 24.3556508253 53.0713597669 53.040196605
Fe 25.8877688964 51.7058625245 51.690824346
Fe 27.2398966306 53.0763068112 53.0733681447
Fe 28.6614224824 51.6440527548 51.7002099152
Fe 30.1111740663 53.0951505523 53.0898962285
Fe 31.6030224814 51.6407400543 51.6958562234
Fe 32.9637726651 53.045341453 53.0824493608
Fe 34.4912118739 51.6629935435 51.6661790699
Fe 35.8709392181 53.0934562767 53.1031408282
Fe 37.3146081947 51.7152564408 51.6706626838
Fe 38.7723034741 53.0663410229 53.043913999
Fe 40.2260620933 51.6736488676 51.638677744
Fe 41.6270899846 53.1002451288 53.0416433007
Fe 43.0564557234 51.6341661035 51.7155062182
Fe 44.4992360206 53.0383639896 53.10563035
Fe 45.915504997 51.6512389194 51.6767506636
Fe 47.3609746109 53.10515017 53.1123018604
Fe 48.8238019065 51.6650927618 51.6242629649
Fe 50.2087439657 53.0760434184 53.1295414165
Fe 51.6933621819 51.7042458315 51.6999128674
Fe 53.1089675623 53.0569254665 53.0670599652
Fe 54.4787218351 51.7084787062 51.7076194997
Fe 55.9236508452 53.1086333703 53.0706030393
Fe 0.0086170307 54.4986402074 51.6282252154
Fe 1.4038683148 55.990708772 53.0539957388
Fe 2.8870912781 54.4807696065 51.6650460088
Fe 4.2718806085 56.0037451418 53.0491820393
Fe 5.7161175295 54.5598128297 51.6210604185
Fe 7.1896891086 55.9209279329 53.0497397583
Fe 8.6334189901 54.5105138707 51.6654502005
Fe 10.0357374193 55.9303696394 53.1043532613
Fe 11.4661333623 54.583690949 51.6953567745
Fe 12.8853171779 55.9923349829 53.0592565964
Fe 14.3157847937 54.4846743006 51.6264425119
Fe 15.7351717087 56.0020175896 53.1368301001
Fe 17.2600835103 54.4933187105 51.6074210762
Fe 18.6006427359 55.961371616 53.095075946
Fe 20.0798298392 54.5582060582 51.6479661828
Fe 21.5621287545 56.0191897897 53.1522712371
Fe 22.9190249722 54.5408960344 51.6797781748
Fe 24.3376805787 55.9727377223 53.1520867146
Fe 25.7908963927 54.5403657718 51.6615851753
Fe 27.2683838383 55.9331475525 53.0397944194
Fe 28.6799974363 54.5693970037 51.6562179729
Fe 30.0866330516 55.9813900118 53.0926854894
Fe 31.5923921301 54.5782306451 51.6342928105
Fe 32.9607665254 56.018576223 53.1411086274
Fe 34.4902979363 54.4836517343 51.612453042
Fe 35.8988863428 55.9458327338 53.0549354681
Fe 37.2541297601 54.4835799638 51.6201747849
Fe 38.7188253749 55.9188483944 53.0922575732
Fe 40.1993349172 54.4974400505 51.619335332
Fe 41.6443898548 55.9553702894 53.1468761267
Fe 43.0946090935 54.5729063819 51.6997529299
Fe 44.4937819018 55.9287176442 53.1164886062
Fe 45.8948736406 54.5579562393 51.6985471299
Fe 47.3291875889 55.9297670781 53.1258774669
Fe 48.8277975976 54.5538622294 51.6879270962
Fe 50.2826637364 55.9225430347 53.0836993696
Fe 51.6438503588 54.5330083028 51.644338459
Fe 53.1370418031 56.0066068586 53.0708414277
Fe 54.5277402315 54.5437857085 51.6670701715
Fe 56.0166509565 55.9806919861 53.1518265814
Fe 57.3966127195 57.3785194304 54.4783172853
Fe 1.4567987673 1.4444038613 55.9373956084
Fe 2.8924835367 57.3602227261 54.5714802523
Fe 4.3225696134 1.4549151817 55.909460553
Fe 5.7832759018 57.3942379924 54.4739355211
Fe 7.1664804514 1.4748898938 55.919034116
Fe 8.6263608278 57.3853065712 54.5110883431
Fe 10.0713959028 1.4922483678 55.9427474772
Fe 11.4674873499 57.3839720041 54.5120467731
Fe 12.9261779792 1.4048380204 55.9786977229
Fe 14.4009543999 57.3698258336 54.5770360293
Fe 15.7895000466 1.4667522755 55.9699093167
Fe 17.2225382162 0.0418071323 54.4789706812
Fe 18.6168440424 1.3991417391 55.9219592633
Fe 20.1196988914 0.0018124003 54.5706608678
Fe 21.4810026656 1.3777254385 55.9180203336
Fe 22.9573336076 0.0115420097 54.5171285042
Fe 24.4370856132 1.395704433 55.9309395653
Fe 25.8364626426 0.0437708487 54.5421080388
Fe 27.2228787247 1.445160438 55.9221060385
Fe 28.7201528941 0.0138248205 54.5830296532
Fe 30.0836972386 1.3989505054 56.0225348536
Fe 31.5216868514 57.3478735331 54.5085817688
Fe 32.996090249 1.4693540667 55.9273417002
Fe 34.4812006045 57.3806210052 54.5109216368
Fe 35.8314873246 1.3907734946 55.9414145024
Fe 37.2629857782 0.0508808384 54.5742545665
Fe 38.800200291 1.4191403858 56.0060258456
Fe 40.2369443094 0.0290589808 54.489764772
Fe 41.6567198801 1.4737447559 55.9584409902
Fe 43.0700461078 57.3870544881 54.5692633684
Fe 44.536220148 1.4054169718 55.9566478369
Fe 45.9119162126 57.362826038 54.4827324567
Fe 47.3053727282 1.4781795159 55.9330102352
Fe 48.8181213232 57.3618849729 54.4889097519
Fe 50.1904925339 1.415879074 56.0052573968
Fe 51.6127372374 0.0155196887 54.5788112018
Fe 53.043949205 1.4299227771 55.9993303774
Fe 54.5222565259 0.0349092717 54.5456417316
Fe 55.9465152186 1.4645637148 55.9415996163
Fe 0.0388054595 2.9066154033 54.4950755985
Fe 1.4270256311 4.298369864 55.919099676
Fe 2.9020090308 2.8847417859 54.5080743013
Fe 4.3233066308 4.2547933264 55.9661762567
Fe 5.7706561883 2.8976285326 54.5379178236
Fe 7.1995034146 4.2566734666 55.9524127168
Fe 8.5960898088 2.8407155357 54.5301415772
Fe 9.9986002329 4.2564603719 56.0090771717
Fe 11.5229761091 2.8525646408 54.5851118943
Fe 12.9488476815 4.3109230759 55.9918405526
Fe 14.3543425117 2.9127375902 54.5582354256
Fe 15.796941603 4.2718991812 56.0082700353
Fe 17.2638114672 2.9023033723 54.4732991548
Fe 18.6627935474 4.2760414611 55.9855277886
Fe 20.0807040732 2.8968256698 54.5722413819
Fe 21.542127159 4.2517658782 55.9161962554
Fe 23.0114395174 2.8791434559 54.5197719957
Fe 24.3678019509 4.2881803472 56.0184450688
Fe 25.8389628627 2.8295444783 54.4990921297
Fe 27.2586318541 4.2981606928 55.9629804909
Fe 28.7467344984 2.8218881259 54.4837885058
Fe 30.1634433457 4.3117523632 55.9776697261
Fe 31.5418760673 2.9048448161 54.5077864876
Fe 33.0301602853 4.3485398357 55.9511349232
Fe 34.398802483 2.8135802718 54.4962213798
Fe 35.8906618861 4.3289749084 55.9950448059
Fe 37.2866321507 2.829316751 54.5136800705
Fe 38.7885589873 4.3587145088 55.9231407343
Fe 40.1498206927 2.8325774715 54.5784574735
Fe 41.6469817742 4.3194560732 55.9590581572
Fe 43.046550498 2.8690050767 54.5648919382
Fe 44.4765051032 4.3556763203 55.9314959046
Fe 45.95533114 2.9151078109 54.5197213643
Fe 47.3076147402 4.2698173853 55.9740564944
Fe 48.7553682826 2.8862712604 54.5792018425
Fe 50.2815185209 4.3070207514 55.9639238068
Fe 51.7089648969 2.8801901832 54.5869277228
Fe 53.0752653535 4.2521743858 55.9509336555
Fe 54.5850512618 2.9019893552 54.5058137434
Fe 56.0122269491 4.3037599135 55.9103512822
Fe 57.3608188777 5.7202598238 54.5394240657
Fe 1.3869747069 7.1682454147 55.9976451128
Fe 2.8744856061 5.7255268098 54.5130244302
Fe 4.311202111 7.2254462507 55.9784830935
Fe 5.7916459789 5.7527715142 54.5530265202
Fe 7.118091416 7.1804285117 55.9344742844
Fe 8.5814268786 5.793108643 54.5385460725
Fe 10.0207500252 7.1760176799 55.968373247
Fe 11.4857542016 5.7857799824 54.5465238348
Fe 12.9501183848 7.1685803375 56.0160128446
Fe 14.3732766296 5.6892737358 54.5017282841
Fe 15.7850521941 7.1897349167 55.939872755
Fe 17.2303396528 5.7298217444 54.5761332162
Fe 18.6507536014 7.139653055 55.9968374499
Fe 20.0355618302 5.779907277 54.5234433856
Fe 21.5498445051 7.1474242978 55.9760054974
Fe 23.0071372141 5.7763949253 54.4758672536
Fe 24.4076130214 7.2224232724 55.9084939141
Fe 25.8411837261 5.7526176772 54.5167670315
Fe 27.2346856189 7.2269305615 55.9406459263
Fe 28.6918258031 5.7456941949 54.5798419653
Fe 30.1898250769 7.2049161132 56.0114706026
Fe 31.5400609842 5.7174090239 54.5201735839
Fe 32.9912291382 7.2147765446 56.0170043961
Fe 34.4278444719 5.7303047605 54.5052177405
Fe 35.8849177778 7.1895416332 55.9985875936
Fe 37.2791061777 5.7936405866 54.5523871474
Fe 38.746888025 7.1857104928 55.9289077385
Fe 40.1556303004 5.7650824448 54.5199890932
Fe 41.570342447 7.200825564 55.9917065844
Fe 43.0863618626 5.7643888141 54.5869208368
Fe 44.4333046032 7.1223867992 55.9174587372
Fe 45.9585692895 5.7832573147 54.5337913568
Fe 47.3493829273 7.1676317558 56.0115493916
Fe 48.7490120965 5.792105971 54.5180730764
Fe 50.2266412869 7.1985229329 55.9835976295
Fe 51.6279526636 5.7183696257 54.5577533498
Fe 53.0638532445 7.1373021687 55.9511210705
Fe 54.5508166071 5.6854065666 54.5810173543
Fe 55.9286303507 7.1429392187 56.0055812849
Fe 57.3981445739 8.6058057411 54.4975618164
Fe 1.4182245736 10.057061049 55.9944902753
Fe 2.8345000051 8.623181937 54.5378130643
Fe 4.3294906166 9.9991776391 55.9370307038
Fe 5.7603302325 8.6590670952 54.5372183926
Fe 7.1293446301 9.990037219 55.914550918
Fe 8.5934568942 8.6083650117 54.5192253634
Fe 10.0936455509 10.000057045 55.9767249574
Fe 11.5314198381 8.655612679 54.4823782647
Fe 12.9026846938 10.0019726354 55.9472923267
Fe 14.3498350124 8.6629004861 54.505704721
Fe 15.778973935 10.0086474503 56.0108987537
Fe 17.2432945403 8.5864693646 54.5482404391
Fe 18.6157270777 10.0361199344 55.9795239696
Fe 20.1419856209 8.5676657072 54.4860630084
Fe 21.4970214837 10.0729878631 55.9546407277
Fe 22.9288839978 8.6182946128 54.5830100551
Fe 24.4247230553 10.0637211704 55.9690331204
Fe 25.8280986176 8.6374710718 54.4956292616
Fe 27.2711248325 10.0375912592 55.9331597856
Fe 28.6906719218 8.6517735563 54.4976453292
Fe 30.143139501 10.095349497 56.0085826948
Fe 31.6256108418 8.5867792244 54.523039451
Fe 32.953127766 10.0654583732 55.9656308499
Fe 34.4481607304 8.6596006229 54.5604661425
Fe 35.912084307 10.0278368261 56.0195278713
Fe 37.3072361008 8.5743349517 54.5778817841
Fe 38.7244983968 10.0426687253 55.992597686
Fe 40.1322185479 8.625096669 54.5193493536
Fe 41.5961497821 10.0610722432 55.9440733737
Fe 43.0380683646 8.6036806945 54.5510209256
Fe 44.4764313505 10.0261709519 55.929759315
Fe 45.930118475 8.6357804909 54.5736547104
Fe 47.3362396506 10.0498671021 55.9463287086
Fe 48.7735440003 8.6440014345 54.4829362065
Fe 50.232408837 10.0619390144 55.9780218307
Fe 51.6796809089 8.5602021374 54.4970154703
Fe 53.0585372337 10.0900617216 56.007754915
Fe 54.5006027309 8.5768055745 54.4860491009
Fe 55.9741789041 10.1019734028 55.9192086832
Fe 0.0297375364 11.4708530976 54.4831727344
Fe 1.3909843917 12.9489007029 55.9425869259
Fe 2.860689453 11.4496591119 54.5389211676
Fe 4.284641051 12.8852275178 55.9367720835
Fe 5.7055424987 11.4525079568 54.5798071711
Fe 7.129872251 12.9690701147 56.0148624967
Fe 8.5740582667 11.4908506919 54.5466697357
Fe 10.0189728684 12.8881482948 55.9148495697
Fe 11.486170655 11.4307604989 54.4819662767
Fe 12.9519886669 12.9433624874 55.9297426214
Fe 14.4078339759 11.5181199723 54.4859098349
Fe 15.8288247688 12.8634361431 55.9984857787
Fe 17.2250790165 11.425389706 54.579579725
Fe 18.7090025539 12.9513291693 55.9410883711
Fe 20.0760494377 11.5191596293 54.475797265
Fe 21.4721267924 12.9299835886 55.9943319428
Fe 22.9924652276 11.4263798269 54.5006924382
Fe 24.3885267128 12.8842867623 55.968587328
Fe 25.7952941605 11.5250181284 54.5188700847
Fe 27.2807250461 12.9513723597 56.0155623101
Fe 28.6757380725 11.4579093505 54.5825996547
Fe 30.0960048243 12.8944729231 55.9715381191
Fe 31.6054518813 11.4954971563 54.5268338539
Fe 33.0223358742 12.913342838 56.021422775
Fe 34.3862774946 11.4494423407 54.5447277643
Fe 35.8376513943 12.9054615687 55.9603773097
Fe 37.2824745076 11.4562558598 54.545494005
Fe 38.7006302899 12.8799147715 55.9513229676
Fe 40.1465465836 11.4628961365 54.5092680259
Fe 41.6622597295 12.9564517209 55.9872689459
Fe 43.0191493214 11.4850178033 54.5667612189
Fe 44.4322239847 12.9526004486 56.0055993083
Fe 45.8717975663 11.460874945 54.4961556377
Fe 47.3586344144 12.8827250646 55.9816758667
Fe 48.755815044 11.4456341459 54.4940880822
Fe 50.2105570933 12.9512496297 56.0057963571
Fe 51.6737926718 11.4656756606 54.5231467188
Fe 53.1261521056 12.9710132398 55.9345979825
Fe 54.5822696133 11.4332363485 54.5822421365
Fe 55.9469330538 12.8621793537 55.9863447604
Fe 57.3862925834 14.3073009485 54.533827756
Fe 1.488667122 15.8064144972 56.0113982739
Fe 2.8512026461 14.3444200164 54.5155793209
Fe 4.2568668266 15.8114222113 56.0133135885
Fe 5.6965714186 14.2952642711 54.4927299713
Fe 7.1755272859 15.8128078284 55.9103642071
Fe 8.5633395915 14.3743593424 54.4931743403
Fe 10.0497401513 15.8282491145 56.0186118691
Fe 11.4948183696 14.2976735002 54.4941377613
Fe 12.8771239016 15.8268540016 55.9143466124
Fe 14.3553621551 14.3946037438 54.5580588679
Fe 15.7416759239 15.7525504634 55.9387621178
Fe 17.2363696434 14.3397141323 54.5294885549
Fe 18.6898760699 15.7394786193 56.0210111493
Fe 20.0398535052 14.3949459174 54.5767714606
Fe 21.4790388893 15.7318396776 55.9697227872
Fe 22.9230118748 14.3345013495 54.5354867256
Fe 24.3554887352 15.766526678 55.9552112126
Fe 25.8846295163 14.4073870064 54.4800456869
Fe 27.2489070642 15.7816716307 55.9270129195
Fe 28.6540976089 14.3935203785 54.5125275632
Fe 30.0929797433 15.755308121 55.9898224804
Fe 31.5590166889 14.389180442 54.5062940214
Fe 32.9497883239 15.812558646 55.954775868
Fe 34.4864364196 14.3411440008 54.5059334246
Fe 35.8782379429 15.8351250357 55.9676838295
Fe 37.3188093438 14.3496855045 54.5420688961
Fe 38.8001424732 15.7490439895 55.9829752524
Fe 40.2250472368 14.3758647814 54.5577389718
Fe 41.670768817 15.8243480472 55.9553677105
Fe 43.0912089743 14.2943659864 54.5086921249
Fe 44.4377446319 15.799521016 55.9312567599
Fe 45.8806729524 14.3439015518 54.5609645308
Fe 47.3256111353 15.8006423178 55.9942854691
Fe 48.7759085077 14.3014163347 54.5592273031
Fe 50.1921578314 15.7430896069 55.9456119673
Fe 51.6618115395 14.3502072049 54.5238771531
Fe 53.1395252507 15.7422075032 55.9311766644
Fe 54.5283426809 14.3350416521 54.5739396825
Fe 55.9273591311 15.7849705682 55.936868433
Fe 57.3636658864 17.2451371895 54.5712358847
Fe 1.4794573282 18.7098930783 55.9743021826
Fe 2.8799127651 17.272895003 54.541075041
Fe 4.3185338176 18.701486743 56.0062741209
Fe 5.7231050788 17.2235317622 54.5450478498
Fe 7.2300870638 18.6766165501 55.9606530897
Fe 8.6630975457 17.2082717241 54.4737246921
Fe 10.0123095477 18.6582391979 55.93342789
Fe 11.5133687813 17.2650609228 54.5141693838
Fe 12.9280342381 18.6784502353 56.0079652889
Fe 14.3827990516 17.2376970337 54.5347338569
Fe 15.8014861974 18.6688335006 55.9800148973
Fe 17.1946524153 17.2157452906 54.5322551081
Fe 18.7072474688 18.6222812562 56.0101504061
Fe 20.1447325938 17.2771219308 54.5476724139
Fe 21.5196790058 18.6150585679 56.0180588625
Fe 22.9739241614 17.1728122514 54.5654878543
Fe 24.350429895 18.6842507904 55.9201684225
Fe 25.8625670457 17.2195549932 54.4835409613
Fe 27.317486604 18.6295469618 55.9489974959
Fe 28.6439004285 17.2187469198 54.4727712929
Fe 30.1617590542 18.6302642692 55.9821581015
Fe 31.5558650064 17.2776099711 54.4915471031
Fe 33.0430402913 18.6216959189 55.930433221
Fe 34.4879013021 17.1989456928 54.4807844214
Fe 35.8486145903 18.7112765912 55.9856502658
Fe 37.3659396925 17.1813849542 54.5650905392
Fe 38.780079527 18.6297109583 55.9593144951
Fe 40.1482991233 17.2451740353 54.5639437812
Fe 41.6233091793 18.6423035154 56.0046938963
Fe 43.0956863008 17.2359165091 54.4760027739
Fe 44.4528626315 18.6007588969 55.9444166512
Fe 45.8793800356 17.2638676125 54.5796462738
Fe 47.3603863911 18.598265171 55.973365509
Fe 48.736844721 17.2770725921 54.5634506472
Fe 50.1697543859 18.598185539 55.9078138157
Fe 51.682817555 17.2049780375 54.5782850243
Fe 53.0380563676 18.6326254803 55.9518396704
Fe 54.4836643515 17.2119128272 54.5637772722
Fe 56.0152846667 18.650205331 55.9587289652
Fe 0.0502696575 20.097466802 54.4825886185
Fe 1.459291537 21.4925056247 55.9909596007
Fe 2.897972838 20.0641927694 54.5872540066
Fe 4.2991757362 21.4753432351 55.9795238117
Fe 5.7838142881 20.1238814917 54.5280346336
Fe 7.2275907305 21.5179765685 55.9485971008
Fe 8.5967568362 20.0553675414 54.5282786874
Fe 10.0810137864 21.5449741038 55.9264391205
Fe 11.5343952416 20.1043387095 54.4760758154
Fe 12.8739775692 21.4731968153 55.9466928573
Fe 14.3790435013 20.0678117435 54.5836990587
Fe 15.8242417284 21.4897910026 55.9583201435
Fe 17.189477014 20.0715631013 54.5870497019
Fe 18.7009799666 21.5113574262 55.9211759541
Fe 20.068733157 20.1082195346 54.4862103593
Fe 21.5296198363 21.4781957878 55.9375027393
Fe 22.9788609706 20.032695933 54.4966645128
Fe 24.4059686512 21.5158948887 55.9500451582
Fe 25.8455241269 20.1312186358 54.5160883117
Fe 27.2359904404 21.5641317221 55.9518655679
Fe 28.7405876927 20.0459244895 54.4889258203
Fe 30.106211297 21.5019474857 56.0017949115
Fe 31.5797900066 20.0419830661 54.5011493906
Fe 33.0366645002 21.5366383982 55.936120949
Fe 34.4910097852 20.0551680728 54.4898330269
Fe 35.8526903596 21.4773317271 56.0157122954
Fe 37.3110082551 20.1259118659 54.5696910383
Fe 38.7396011267 21.5510261407 55.981760227
Fe 40.2323560918 20.061028939 54.525122021
Fe 41.6348192271 21.5442512855 56.0162578782
Fe 43.097715477 20.1186191653 54.5092917332
Fe 44.5358786973 21.5314601385 56.020779869
Fe 45.8690670304 20.081706812 54.5006497521
Fe 47.3040778776 21.5077988677 55.936277025
Fe 48.7701144137 20.1200685959 54.5117989995
Fe 50.1933091445 21.545664126 55.9272012932
Fe 51.6760674867 20.1401787842 54.5043729399
Fe 53.1196923675 21.5568200228 55.9298566609
Fe 54.5304109548 20.0481321873 54.4989919744
Fe 55.9805230232 21.5680108073 56.0192298439
Fe 57.3812417113 22.9675020746 54.4950931616
Fe 1.4209060458 24.4314490558 55.9742545927
Fe 2.8332601548 22.9499093805 54.5447108454
Fe 4.3578042793 24.4187969572 56.0020732336
Fe 5.706103043 22.9048561553 54.5664717398
Fe 7.194562742 24.3779911748 55.9710657104
Fe 8.6539333998 22.9446874969 54.4911512265
Fe 10.0627487958 24.4306872227 55.9360707801
Fe 11.4567723269 22.95370631 54.4862788022
Fe 12.8708588001 24.3467062258 55.9414085191
Fe 14.3941713998 22.9785831946 54.5670975174
Fe 15.7288628185 24.3535895572 55.9684365054
Fe 17.2393628438 22.9879799342 54.5645616148
Fe 18.6491203807 24.3719697458 56.0124127478
Fe 20.1231117161 22.9907952231 54.4961240925
Fe 21.5048023823 24.3682520577 55.988328578
Fe 23.0027998245 22.9053873406 54.5371121887
Fe 24.4140775087 24.3838294712 55.93088684
Fe 25.8689586143 23.0141867357 54.5161791633
Fe 27.2285141531 24.4507008123 55.9246708624
Fe 28.6428756746 22.9557669359 54.5616803701
Fe 30.0939010913 24.4273362512 55.9404192458
Fe 31.5191998764 22.9649188281 54.5516887397
Fe 33.0083796172 24.4485157944 55.9917458792
Fe 34.4594508978 22.9890590442 54.5182925019
Fe 35.878382422 24.3377110668 55.9349689156
Fe 37.3239802323 22.9425017105 54.5427162899
Fe 38.7899646183 24.3579336981 55.9274433898
Fe 40.1919870936 23.0036400916 54.4882651152
Fe 41.5692852853 24.3632271937 55.9239117502
Fe 43.007106236 22.9478144974 54.5174654026
Fe 44.4880411248 24.3957259405 55.9775678363
Fe 45.9350114547 22.9670117995 54.5725997045
Fe 47.2982391152 24.3456717598 55.9397551299
Fe 48.8125111767 22.9232484162 54.5776980054
Fe 50.1835058795 24.3579494113 55.9276444748
Fe 51.6480923107 22.9215049799 54.5420462537
Fe 53.0413137205 24.3448419024 56.0176754541
Fe 54.5239559725 22.9543957401 54.5406601836
Fe 56.022113404 24.3696048279 55.9755944862
Fe 0.022015782 25.8045189688 54.5266381355
Fe 1.4267448247 27.3215182072 55.933110921
Fe 2.9022419705 25.8065270271 54.4856514523
Fe 4.3065231589 27.2464929406 55.9935736598
Fe 5.770713273 25.797804277 54.530254355
Fe 7.232026774 27.3197789015 56.0025235121
Fe 8.6582132852 25.8415644134 54.5097994758
Fe 10.0149765194 27.2498885968 55.9107634665
Fe 11.5298776968 25.8322459071 54.5505815416
Fe 12.8773466601 27.262962486 55.984465851
Fe 14.2963323489 25.794278304 54.5229774978
Fe 15.7469555235 27.2955491832 56.0061187391
Fe 17.2072844338 25.8670047667 54.5031018374
Fe 18.6560422114 27.2434814675 55.9213677174
Fe 20.0591501246 25.870170803 54.4800659277
Fe 21.5195862868 27.2074490417 55.9912700755
Fe 22.9765498166 25.8270303661 54.4853405457
Fe 24.3896233025 27.2493357595 56.0099279657
Fe 25.8044943079 25.8324740982 54.5751097953
Fe 27.232361791 27.257788856 55.9260370237
Fe 28.7252550899 25.7878166013 54.4842293967
Fe 30.0990920233 27.2400976444 55.9180216076
Fe 31.6143187753 25.8660988883 54.4777527879
Fe 32.9580007585 27.2831588644 55.9454606515
Fe 34.4876248084 25.8633515203 54.5212091101
Fe 35.8721921748 27.2962921716 55.987829656
Fe 37.3668869134 25.8767747044 54.5171761792
Fe 38.7883011101 27.284785717 56.0215482133
Fe 40.1660827033 25.8731902352 54.4938235807
Fe 41.6700616561 27.2396211458 55.9632359025
Fe 43.0437374255 25.8550379237 54.4922238442
Fe 44.4296359144 27.2514927431 55.9740631062
Fe 45.8695414661 25.8531006748 54.5184620947
Fe 47.3677465736 27.2884992807 55.9988156825
Fe 48.8391582225 25.8229958629 54.5266232735
Fe 50.1936846345 27.2403181532 55.9109918916
Fe 51.6693397439 25.7921657262 54.4795156521
Fe 53.0994352886 27.3061065134 56.0091883703
Fe 54.5818056195 25.8602975789 54.57528537
Fe 55.9367957147 27.2469398873 56.0194369873
Fe 57.3473203728 28.7145818149 54.5536017459
Fe 1.4880722606 30.1652636349 55.9138675243
Fe 2.8158157389 28.6995214289 54.5421888663
Fe 4.2742546254 30.0786349603 55.9107527406
Fe 5.7391345868 28.7255408653 54.5100364925
Fe 7.1256347957 30.0947211159 55.9126604746
Fe 8.5755338518 28.6807640197 54.570329935
Fe 10.0437863503 30.1589232558 55.9182632898
Fe 11.5174946049 28.7355006764 54.5388909607
Fe 12.9118698542 30.1450504255 55.9940118859
Fe 14.3962879519 28.6584308652 54.4885473851
Fe 15.785284661 30.0993268575 55.9739925292
Fe 17.2343801073 28.6565768623 54.5351052443
Fe 18.6453553896 30.1220761003 56.0195929143
Fe 20.1451365632 28.7073044623 54.5504919441
Fe 21.5306989561 30.1259000713 55.9343063637
Fe 22.9892294488 28.6801610171 54.5300936464
Fe 24.439184113 30.1590745912 56.0049526044
Fe 25.8464406782 28.6948825114 54.5582620169
Fe 27.3178482313 30.1397895047 55.9652678382
Fe 28.6774572342 28.6847952145 54.4887286544
Fe 30.1387696969 30.1481706438 55.9584780686
Fe 31.5605765191 28.6474969442 54.5533179787
Fe 33.0371110728 30.1533024323 55.9162705585
Fe 34.4663386856 28.7571247663 54.5535573796
Fe 35.8227513829 30.0986789378 55.993492462
Fe 37.3002175689 28.6855597242 54.5693476039
Fe 38.7837769307 30.148459259 55.9429617873
Fe 40.2230038572 28.7262980306 54.5062511554
Fe 41.6107276815 30.1419209161 55.9216027972
Fe 43.0612745799 28.7410395465 54.580358561
Fe 44.4332190456 30.0783917888 55.9077604368
Fe 45.8978264692 28.6431669546 54.4785484015
Fe 47.3467721242 30.1904827433 55.9141826842
Fe 48.8039460695 28.7377920756 54.5050845631
Fe 50.1716986968 30.1400570801 55.9452785524
Fe 51.6744338377 28.6511909039 54.4926814247
Fe 53.0912650655 30.1160942435 56.0081272319
Fe 54.5276921181 28.6632538594 54.5543826195
Fe 55.917398343 30.1820865296 55.9942918269
Fe 57.3883946967 31.5835794951 54.4826390171
Fe 1.4753363516 32.9848290791 55.9730733561
Fe 2.8542600832 31.5455652337 54.5499355897
Fe 4.2788118822 33.0582322702 55.9317820756
Fe 5.7282777162 31.5761526623 54.4796273704
Fe 7.1955109763 32.9505465501 55.9087892311
Fe 8.6585148866 31.5723256911 54.5852008573
Fe 10.0818940901 33.0146559912 55.9465985506
Fe 11.5315830854 31.517994858 54.5395103522
Fe 12.9652862107 32.9826585119 55.9478043797
Fe 14.3339359436 31.592324381 54.5343155619
Fe 15.8261630687 32.9786058487 55.9719700247
Fe 17.1756899489 31.5553382301 54.5405736488
Fe 18.6359708288 33.0114913563 55.920801832
Fe 20.0873924758 31.6110654537 54.5835393731
Fe 21.471966485 33.0065850695 55.9714297656
Fe 22.9441390258 31.5659666164 54.5352544478
Fe 24.4480426282 32.959647621 55.9823100203
Fe 25.8267477241 31.5507219254 54.5443407096
Fe 27.2419791404 32.9758841998 55.9630333604
Fe 28.7081522426 31.5829651898 54.4882424252
Fe 30.1258099932 33.0125856304 55.9307762403
Fe 31.5526392816 31.5834742233 54.5446361665
Fe 33.0283639113 32.9485705796 55.9937461207
Fe 34.4856373184 31.5809779335 54.5153284422
Fe 35.8419813602 32.9613256474 56.0137451202
Fe 37.2865579493 31.5471471617 54.5823827959
Fe 38.8014193469 32.9792104415 55.9477845555
Fe 40.2347208274 31.5781269009 54.5696639967
Fe 41.6129834721 33.0480506764 56.020379867
Fe 42.9953388894 31.6278223727 54.5183129006
Fe 44.483947755 33.0578699467 55.9121370725
Fe 45.9170595726 31.5689525099 54.5763899793
Fe 47.4013775842 32.9608391683 55.9395137806
Fe 48.7715122223 31.5211999435 54.5552883099
Fe 50.2813855077 32.9939221462 55.9939902722
Fe 51.70982212 31.5512282655 54.5744916997
Fe 53.0487420346 33.0587106943 55.910889421
Fe 54.5012468871 31.6169338635 54.5218013707
Fe 56.0161081635 32.9986740145 55.9496629382
Fe 0.0379985939 34.4827247675 54.4949928038
Fe 1.4679415442 35.8327127952 55.9300046877
Fe 2.824895522 34.4738151117 54.4920517623
Fe 4.2812098378 35.8780038779 55.9772264824
Fe 5.7923876638 34.4885371839 54.5050922167
Fe 7.1360169226 35.8840865687 55.9646190674
Fe 8.5593728454 34.4122702413 54.4825597721
Fe 10.0970816724 35.9080044883 55.9766027125
Fe 11.4392540191 34.4889446408 54.576548169
Fe 12.8867552565 35.8257385154 55.9668710121
Fe 14.3473554035 34.4190146707 54.5169983677
Fe 15.8363257762 35.9090232013 55.9356778575
Fe 17.1881307224 34.4267548125 54.5488250116
Fe 18.68286775 35.8596507321 55.9855787134
Fe 20.0451147741 34.4605840346 54.5841612119
Fe 21.5511246858 35.8790311196 55.922256299
Fe 22.9260030452 34.4407986649 54.5494310738
Fe 24.4379597766 35.9280974839 55.9878710034
Fe 25.8079992868 34.414948178 54.5595892486
Fe 27.2844570621 35.9297057386 55.9235385563
Fe 28.7569146415 34.4857093213 54.5062551285
Fe 30.1406884849 35.9050618118 55.9631722093
Fe 31.5482969198 34.4484764835 54.5443898449
Fe 32.9474404218 35.8459131849 56.0135281
Fe 34.3917441378 34.3824999575 54.5124106186
Fe 35.8855200535 35.9300964244 55.9135805194
Fe 37.3039886062 34.4399661372 54.5048822207
Fe 38.7807592637 35.8813588389 55.9208702865
Fe 40.1429872097 34.4903722674 54.4928518963
Fe 41.58302573 35.8517478576 55.9908950397
Fe 43.0985593345 34.439264127 54.5248735596
Fe 44.4880447987 35.9044935199 55.9784277827
Fe 45.8687249309 34.4829714583 54.4791006855
Fe 47.3373992984 35.888747786 55.9635092718
Fe 48.8357016555 34.4156682994 54.4993897954
Fe 50.2485047078 35.9146985205 55.9981398885
Fe 51.698226308 34.4567487001 54.5212579959
Fe 53.1211281388 35.8733121594 55.9863497798
Fe 54.5300102646 34.4164905371 54.476653901
Fe 55.9173089827 35.874277875 55.9742969359
Fe 0.0090014682 37.2943175464 54.5347604522
Fe 1.4436888102 38.758218605 56.0210106754
Fe 2.8391512708 37.3037509523 54.5080329668
Fe 4.3406981992 38.7209078971 55.9612496451
Fe 5.690540659 37.3129782426 54.5764966923
Fe 7.2309257279 38.7250701881 55.931884619
Fe 8.5924386224 37.3426242695 54.4981047613
Fe 10.096463297 38.6887928455 55.9349054571
Fe 11.5282812416 37.2654933979 54.5843144188
Fe 12.8854094087 38.7206471628 56.0034831185
Fe 14.3979646142 37.2809188267 54.4753549204
Fe 15.7957667233 38.741521582 55.9130438492
Fe 17.1767339154 37.2569907501 54.4870515877
Fe 18.6704875213 38.7079311649 56.0038754603
Fe 20.1255579997 37.3509728986 54.5149816591
Fe 21.540040696 38.7160482363 55.9403836496
Fe 22.9880390207 37.2839353548 54.5843353315
Fe 24.3810101728 38.7261339332 55.9073037536
Fe 25.8352591042 37.3068037418 54.4796148241
Fe 27.2489875946 38.7694722518 55.9264666988
Fe 28.6955511207 37.2724401903 54.4949301012
Fe 30.1415736528 38.7342221928 55.9329227721
Fe 31.5622737696 37.3375001122 54.4957830263
Fe 33.0578082649 38.7620209046 55.9946604023
Fe 34.4640929914 37.329216135 54.5705897626
Fe 35.8363755477 38.7450630131 55.9562262104
Fe 37.3571027685 37.2889930464 54.535225157
Fe 38.8027443478 38.7868945838 55.9960690727
Fe 40.1717168286 37.2983740063 54.4858457954
Fe 41.6554404724 38.7067738602 55.9959945744
Fe 43.0623272183 37.3307990044 54.5246886894
Fe 44.4669730484 38.7377068252 55.9615358059
Fe 45.9095842879 37.3201190016 54.4827494583
Fe 47.3855626261 38.7562419439 56.0166357242
Fe 48.7999278068 37.307842133 54.5188492794
Fe 50.2221924885 38.6998147001 55.9767303351
Fe 51.7088489735 37.3261534102 54.5584252203
Fe 53.0659097071 38.7911185859 56.0015749923
Fe 54.4772002517 37.2869635676 54.5839666207
Fe 55.9474567918 38.7495626723 55.9465548605
Fe 57.3931509188 40.1652425096 54.5814970897
Fe 1.4696361775 41.5877398495 55.9552799111
Fe 2.9126079708 40.2010252722 54.5832350043
Fe 4.3452830778 41.5999684537 56.009750684
Fe 5.7096716379 40.2155035234 54.4853802795
Fe 7.1628539581 41.5705514228 55.9631568985
Fe 8.6190354669 40.1369920568 54.5705835598
Fe 10.0935306454 41.6126603623 55.9116947142
Fe 11.4661362514 40.2048413298 54.5177907051
Fe 12.9325566063 41.6507765581 55.9917877686
Fe 14.3980320575 40.2049273736 54.5167758984
Fe 15.8036583474 41.6536543709 55.9665187891
Fe 17.2045903576 40.1242370374 54.5645945882
Fe 18.5999460428 41.5764308504 55.9663339538
Fe 20.0657639318 40.1553282007 54.5675901995
Fe 21.5043134269 41.5597076117 55.9432681461
Fe 22.9924639364 40.2044656641 54.543750028
Fe 24.3971824949 41.6679411811 55.9885059504
Fe 25.7907693155 40.1780191628 54.4762927895
Fe 27.2853239859 41.6352799337 55.9506329382
Fe 28.6624628323 40.1616462871 54.5079814853
Fe 30.0783223379 41.5903265976 56.0010791604
Fe 31.5670462933 40.1726493514 54.5470832248
Fe 33.0307884645 41.6043903273 55.9662379651
Fe 34.3971663191 40.1896571047 54.5507834539
Fe 35.894024305 41.6266540064 55.9770447604
Fe 37.2856906136 40.1922497496 54.4761081653
Fe 38.7187365947 41.6721729345 55.9704958183
Fe 40.1924604606 40.2297526629 54.4736433691
Fe 41.6693551599 41.5881303054 55.9777184954
Fe 43.0336524164 40.1646348781 54.4859974741
Fe 44.4739436961 41.5816072387 55.9586733325
Fe 45.8855568524 40.2378097908 54.5221011125
Fe 47.3028736317 41.6177927487 55.9438148074
Fe 48.8420499418 40.1960212226 54.5145814314
Fe 50.1822881595 41.5777811834 55.93737781
Fe 51.6202497201 40.1677248876 54.5822023198
Fe 53.0566291668 41.6057564023 55.9883657301
Fe 54.5695049321 40.1548897576 54.5467729502
Fe 55.9109235418 41.5941249808 55.9882785129
Fe 0.0150813983 43.0885040196 54.5418830018
Fe 1.3957320375 44.5099914809 55.9997176877
Fe 2.9136095051 43.0048498785 54.4860000286
Fe 4.2514733274 44.538824467 55.9956249029
Fe 5.7084299958 43.0373974558 54.5101273973
Fe 7.1206894425 44.4699074656 56.0196178123
Fe 8.5724983355 43.0735651117 54.5476292226
Fe 10.0379611879 44.4706800114 55.9223717114
Fe 11.4590209911 43.0718833947 54.5606520901
Fe 12.8762063912 44.4739265053 55.9311697604
Fe 14.3273694823 43.0211566986 54.5322986373
Fe 15.8331517607 44.4809719702 55.9254939903
Fe 17.2214081401 43.0734293628 54.4999761173
Fe 18.6526426314 44.534146122 56.010380983
Fe 20.1046319979 42.997854385 54.5178998153
Fe 21.5655540198 44.4812222088 55.9772127577
Fe 22.9586859401 43.0644486846 54.5604134361
Fe 24.442100825 44.5417431107 55.9409914257
Fe 25.8189285419 43.1008683425 54.5197869753
Fe 27.2233886213 44.4457796542 55.9596336921
Fe 28.6922133653 43.0532326217 54.4770614765
Fe 30.1257568753 44.5131636079 55.9393849544
Fe 31.6065036412 43.0013308359 54.5451412968
Fe 32.9671007533 44.497410265 55.9480103155
Fe 34.3955166625 42.9966331496 54.4955201758
Fe 35.8657472775 44.4725836671 55.9565814638
Fe 37.3628516562 43.0034515865 54.4808382702
Fe 38.7139016793 44.4605442008 55.9654663767
Fe 40.2290990818 43.0159147418 54.4806744138
Fe 41.5698341401 44.5317418702 55.9762175729
Fe 43.0629583818 43.0287676847 54.5338578651
Fe 44.4484914259 44.4390768599 56.0152038577
Fe 45.8684768709 43.0450853094 54.5326545841
Fe 47.357112587 44.4488628305 56.0025473981
Fe 48.797595908 43.0642254359 54.5204709143
Fe 50.1809451995 44.5417678505 55.9412968173
Fe 51.6783247014 43.0961813884 54.4938923021
Fe 53.0437990361 44.5120909894 55.9263294786
Fe 54.4904157323 43.0970025935 54.5789668564
Fe 55.9957523394 44.4589115836 55.9370003211
Fe 0.0530765298 45.9109257024 54.5797334516
Fe 1.4018416561 47.3494404618 55.976665148
Fe 2.8802301212 45.9368203637 54.5335865973
Fe 4.3226222674 47.3272015403 55.9307314119
Fe 5.7374567075 45.9478634874 54.5066619254
Fe 7.1988835836 47.3983588526 55.9486541504
Fe 8.6179002579 45.8668205863 54.5209008223
Fe 10.0177363428 47.3025335352 55.966440833
Fe 11.5346161665 45.9127596605 54.5446690464
Fe 12.9079871434 47.3619114246 55.9500763336
Fe 14.293475419 45.902908319 54.474452492
Fe 15.7729791852 47.3148980266 55.9229426302
Fe 17.2445978415 45.8859472261 54.5401471288
Fe 18.6892492532 47.3159240618 55.9505744191
Fe 20.1295829951 45.925765328 54.5707080606
Fe 21.5308710124 47.4008537357 55.9230163266
Fe 22.9864637846 45.8922289842 54.5608939043
Fe 24.4016037728 47.3590615548 55.9212533979
Fe 25.8133227425 45.9067735408 54.5772998019
Fe 27.3172945428 47.4048045889 55.9350185617
Fe 28.6435927067 45.8869532524 54.5779147675
Fe 30.0845474627 47.3604321655 56.0099716263
Fe 31.6263003979 45.9308211209 54.5072651237
Fe 32.9687710331 47.4123180545 55.9952060683
Fe 34.4903911723 45.9750199711 54.5704497501
Fe 35.9229147637 47.4024048485 55.9287492685
Fe 37.2880058411 45.9615706911 54.5045412462
Fe 38.7960498491 47.3018761855 55.9448531695
Fe 40.2343879212 45.9690872915 54.5667113467
Fe 41.6599029399 47.3366058912 55.9947958563
Fe 43.0307552891 45.9653249133 54.5702202717
Fe 44.4858203133 47.355332059 55.919417713
Fe 45.9526167174 45.8880258554 54.5289793884
Fe 47.3519169353 47.4101098097 55.9714829102
Fe 48.8217836748 45.9359228186 54.5694801571
Fe 50.2057663226 47.3257697522 55.9836686919
Fe 51.6284587565 45.9668456155 54.550425846
Fe 53.087907108 47.3947589256 56.0202150182
Fe 54.5659917843 45.926541336 54.4853450239
Fe 55.9602056171 47.3210265092 56.0087066102
Fe 0.0469457845 48.7737845073 54.5394929208
Fe 1.3861844942 50.2791205857 56.0186152681
Fe 2.90061511 48.7404473258 54.5590914886
Fe 4.3414526643 50.2451614534 55.9840082603
Fe 5.7642301275 48.82851893 54.4726992072
Fe 7.1926571933 50.2639340058 56.0032667503
Fe 8.6237411561 48.7593608657 54.4927955101
Fe 9.9997515296 50.242396302 56.0214905501
Fe 11.4594208746 48.8348859329 54.5346189198
Fe 12.9000838912 50.1945696661 55.924900332
Fe 14.377398854 48.7738554611 54.5124973959
Fe 15.7548769983 50.1703308246 55.9959645681
Fe 17.2237753391 48.7480887365 54.5277538557
Fe 18.6029838894 50.2109795213 56.0054379333
Fe 20.1143517284 48.8075729694 54.5409039828
Fe 21.5468254606 50.2433778914 55.9320641827
Fe 22.9981713719 48.8035711448 54.5866065867
Fe 24.4186064337 50.1746086012 56.0213462899
Fe 25.880990573 48.8107594757 54.519850442
Fe 27.304686368 50.2629506762 56.0077563316
Fe 28.6843974601 48.7868325956 54.5763500579
Fe 30.1346010268 50.2610685566 56.0055175988
Fe 31.5206529399 48.743560544 54.5867881669
Fe 33.0157155623 50.2197206179 55.9560997012
Fe 34.4463183185 48.8319186303 54.5251285364
Fe 35.9305247863 50.2786917304 55.9532676651
Fe 37.2623847329 48.8433984259 54.5724437311
Fe 38.7562269722 50.2160466717 55.9725394658
Fe 40.1493421154 48.8344705961 54.522683146
Fe 41.6247606021 50.253035787 55.9479138405
Fe 43.0561019494 48.7383490914 54.535908511
Fe 44.452288642 50.2290359622 55.9535288396
Fe 45.9127308137 48.803797363 54.5307346851
Fe 47.3431540867 50.2710347379 55.9290456004
Fe 48.7993118181 48.8063396541 54.5661918901
Fe 50.2659312958 50.2645872522 55.9530161928
Fe 51.6472541204 48.8014758241 54.5007397918
Fe 53.0750021439 50.2473086312 56.0194949857
Fe 54.5029802302 48.7386056063 54.5054133202
Fe 56.0075320465 50.2498620302 55.9194514051
Fe 0.033251436 51.6490518427 54.5776461813
Fe 1.4709456511 53.1269119526 55.9781449467
Fe 2.823303319 51.7124945351 54.4904665862
Fe 4.307832609 53.102117448 56.0046163086
Fe 5.7119676864 51.6422640236 54.5016234529
Fe 7.1262841491 53.1304238822 56.0101042375
Fe 8.5911340043 51.673857227 54.5131183539
Fe 10.0322217778 53.1369726138 55.9509002619
Fe 11.4325447703 51.6748695292 54.5835307795
Fe 12.9416033904 53.1419356159 55.9867486037
Fe 14.3529141418 51.6430016815 54.5596777211
Fe 15.7768291708 53.0527043942 55.9406516721
Fe 17.2558118658 51.648742205 54.5043297049
Fe 18.6922697363 53.0941115046 55.9435336532
Fe 20.0887600911 51.6099621243 54.5546171505
Fe 21.5664216233 53.0507867425 55.9239326122
Fe 22.9586635183 51.6581873151 54.5101303789
Fe 24.3629129964 53.120244954 55.9651485057
Fe 25.8544174487 51.6515619953 54.4941389656
Fe 27.2311273693 53.0920039312 56.0110389726
Fe 28.7294723579 51.6649849322 54.5178809274
Fe 30.0985298305 53.0657696255 56.0155630705
Fe 31.5521819921 51.7169380777 54.5015639688
Fe 33.0006584744 53.1281107634 55.9773107972
Fe 34.4542280573 51.6132255769 54.4734770088
Fe 35.8191807865 53.0449868533 55.9131112515
Fe 37.3235078597 51.6174722192 54.5431248128
Fe 38.708369621 53.0520163501 55.9839097502
Fe 40.2167693669 51.7124552572 54.4924853951
Fe 41.6010290036 53.1345133558 56.0129838754
Fe 43.0173144335 51.6026543174 54.5363017295
Fe 44.4399101552 53.1354015987 56.0045954736
Fe 45.8634480895 51.6687785279 54.5679489365
Fe 47.3747747536 53.145980337 55.9202595836
Fe 48.8366730469 51.674923579 54.4958914672
Fe 50.2319353596 53.1097984935 56.0218575594
Fe 51.6073535176 51.7101783483 54.5559206604
Fe 53.0720265619 53.1507181713 56.0207951807
Fe 54.5191074903 51.7175876007 54.5274450063
Fe 55.9716742644 53.0517809449 55.96088995
Fe 3.48121602e-04 54.5466160022 54.5833823389
Fe 1.4816669661 55.9761493196 55.9451220641
Fe 2.8390350226 54.527688871 54.5467122013
Fe 4.2644183228 55.945931558 56.0078564986
Fe 5.7223898935 54.5517727788 54.483262269
Fe 7.2310094647 55.9790732676 55.9613703628
Fe 8.5567151443 54.5812444848 54.5081978324
Fe 10.0147110735 55.9354641531 55.9581866172
Fe 11.5367386687 54.50971107 54.4966328232
Fe 12.9691655529 55.9697947228 55.9579066093
Fe 14.3036449078 54.4965888271 54.5118429047
Fe 15.8142776319 55.9488611402 56.0088035242
Fe 17.2322148747 54.5347601307 54.4945873646
Fe 18.6343000245 55.9855100496 55.9580750179
Fe 20.0394929704 54.4873829753 54.5338251931
Fe 21.5482858653 55.9769191234 55.9560253116
Fe 22.9972828258 54.4902276073 54.4912354234
Fe 24.4242641954 55.9373078989 55.911535184
Fe 25.8156733552 54.4945596264 54.4979960263
Fe 27.3221585641 55.9998763233 55.9165574986
Fe 28.7507313723 54.5291221375 54.5465671133
Fe 30.162790574 55.9171314856 55.9261870053
Fe 31.5750577491 54.5513814513 54.4826608989
Fe 32.9863112942 55.9086586316 55.9142600073
Fe 34.4039048017 54.5014583895 54.5419880892
Fe 35.9308040487 55.9484984983 56.0185442293
Fe 37.3565874463 54.5133470574 54.5865993133
Fe 38.7944676864 55.975295047 55.9119580888
Fe 40.1618274009 54.4800193065 54.5246079853
Fe 41.6073697136 56.0057552529 55.9685514502
Fe 43.105128852 54.5118565588 54.5404905502
Fe 44.4306796336 55.9804132414 55.9639794171
Fe 45.9417482457 54.5237720601 54.5032493607
Fe 47.3063821403 55.9991638845 56.0194901808
Fe 48.7725185919 54.5675977129 54.508722672
Fe 50.1682144156 56.0068878089 55.9199825662
Fe 51.6392331061 54.5033265419 54.5662697788
Fe 53.0954754366 55.9312885619 56.0053380404
Fe 54.4828270506 54.4765146938 54.559056981
Fe 55.972843582 55.9117520856 55.9101032629
