ITEM: TIMESTEP
0
ITEM: NUMBER OF ATOMS
256
ITEM: BOX BOUNDS pp pp pp
0.0000000000000000e+00 1.6312000000000001e+01
0.0000000000000000e+00 1.6312000000000001e+01
0.0000000000000000e+00 1.6312000000000001e+01
ITEM: ATOMS id type x y z vx vy vz
1 1 0 0 0 0.85698232089426019 -0.2273319854998743 -0.015006166756170686
2 1 2.0390000000000001 2.0390000000000001 0 3.3505703947792811 -0.52762784973242116 -2.3877487236350055
3 1 2.0390000000000001 0 2.0390000000000001 -2.5868309625712853 -1.8186445494082129 -1.9653481642795592
4 1 0 2.0390000000000001 2.0390000000000001 -2.0973995371292213 2.032512502268184 -0.44463929267765889
5 1 4.0780000000000003 0 0 2.8792118419845103 -1.2599062880114902 -0.82170166054968463
6 1 6.1170000000000009 2.0390000000000001 0 1.8817146031137419 -0.95594036118191572 -3.5650043291698976
7 1 6.1170000000000009 0 2.0390000000000001 1.4776320499979529 3.3948288483035571 -2.1567205958049795
8 1 4.0780000000000003 2.0390000000000001 2.0390000000000001 0.15321046460893786 0.80002158959499758 -2.9592532536590199
9 1 8.1560000000000006 0 0 -2.3138759142281931 1.0351686787650261 1.9521287940665224
10 1 10.195 2.0390000000000001 0 1.3399626499342021 0.44800024711824082 -0.60486152327687936
11 1 10.195 0 2.0390000000000001 -0.38269812321746838 -1.1760421073592888 2.0287579088839123
12 1 8.1560000000000006 2.0390000000000001 2.0390000000000001 -0.084507345678185311 -1.7082759866637609 1.5502875334396375
13 1 12.234000000000002 0 0 2.1011547804705244 -1.8997477633339221 -1.0614626542252332
14 1 14.273000000000001 2.0390000000000001 0 -1.6460812934241498 0.060318339790023691 0.085833775102900883
15 1 14.273000000000001 0 2.0390000000000001 0.94574057968400327 -0.66561453643220392 0.097823389976993705
16 1 12.234000000000002 2.0390000000000001 2.0390000000000001 -0.35547769639659499 -0.5153917050127913 -2.1201084793901899
17 1 0 4.0780000000000003 0 0.09522454296357262 -0.11911275086658661 1.699552951222306
18 1 2.0390000000000001 6.1170000000000009 0 -0.97503424324065113 -0.19607760701923277 0.69832710664575792
19 1 2.0390000000000001 4.0780000000000003 2.0390000000000001 -1.516743710435142 2.6424694904594239 -1.4407607753755403
20 1 0 6.1170000000000009 2.0390000000000001 0.46651047436350357 1.1158212163649726 -2.7046574456140986
21 1 4.0780000000000003 4.0780000000000003 0 0.39833572932608508 -1.8358558971453023 0.38902603593133045
22 1 6.1170000000000009 6.1170000000000009 0 -2.4094225877920721 1.0527879154755864 0.108083193954554
23 1 6.1170000000000009 4.0780000000000003 2.0390000000000001 1.973401011455751 -0.90170545896359777 -0.76589485090895459
24 1 4.0780000000000003 6.1170000000000009 2.0390000000000001 4.6592766237465604 0.81693537077945677 -1.5366365333249943
25 1 8.1560000000000006 4.0780000000000003 0 -0.36631996304086167 -1.7134191161737864 0.91214654360257708
26 1 10.195 6.1170000000000009 0 -1.0079225965502299 -1.6470778495651228 0.62152657487883101
27 1 10.195 4.0780000000000003 2.0390000000000001 -2.6969786483233698 -1.1494110563470916 -0.60400345215431894
28 1 8.1560000000000006 6.1170000000000009 2.0390000000000001 -2.056466236756568 -0.78935622807592021 1.2716046762801725
29 1 12.234000000000002 4.0780000000000003 0 -0.50794805716424818 0.66178016085232394 -3.1145594422252665
30 1 14.273000000000001 6.1170000000000009 0 -3.1782839661942193 1.2300235020809491 -0.0883758113698353
31 1 14.273000000000001 4.0780000000000003 2.0390000000000001 -0.95957555008480633 -0.7034841052044013 -2.1706398859221672
32 1 12.234000000000002 6.1170000000000009 2.0390000000000001 -0.60408177583961564 -2.4265125214745202 0.93227995952272258
33 1 0 8.1560000000000006 0 -1.7405360455907577 0.68044338106547764 -0.1750611950447212
34 1 2.0390000000000001 10.195 0 1.0019289201753354 -0.3698517737002292 0.88941994116671597
35 1 2.0390000000000001 8.1560000000000006 2.0390000000000001 -1.1716972250132665 0.47376717837856641 -0.55419785715975378
36 1 0 10.195 2.0390000000000001 0.71808326852641569 3.1115578427496495 -1.0659614451041333
37 1 4.0780000000000003 8.1560000000000006 0 1.756784699343348 -0.77069583716505763 2.2670977226211981
38 1 6.1170000000000009 10.195 0 -0.802370990771058 -1.5057278107412602 1.314439168857449
39 1 6.1170000000000009 8.1560000000000006 2.0390000000000001 1.709141849440484 -0.83229274005907994 2.3092597846558816
40 1 4.0780000000000003 10.195 2.0390000000000001 1.2261025051496104 -0.42485965384687502 -1.5965407438053707
41 1 8.1560000000000006 8.1560000000000006 0 0.012693673820075016 -2.7208493892090111 0.21512027686516247
42 1 10.195 10.195 0 -1.0375470061512713 -2.4081011519803943 0.12161700151713187
43 1 10.195 8.1560000000000006 2.0390000000000001 0.55963557201424874 -2.6381889934193392 -0.13026160795488734
44 1 8.1560000000000006 10.195 2.0390000000000001 -2.3644743130424386 0.088903554441636556 2.7896116847340844
45 1 12.234000000000002 8.1560000000000006 0 -2.2645986761054999 -0.75434184686251171 2.1635324730979231
46 1 14.273000000000001 10.195 0 0.60415384027472063 -1.3776568981197841 -1.2026707767223281
47 1 14.273000000000001 8.1560000000000006 2.0390000000000001 0.89737774361022637 -1.4005821050730978 0.10962850013435416
48 1 12.234000000000002 10.195 2.0390000000000001 -1.8713331116778866 -1.4539300715259884 -1.372999333500877
49 1 0 12.234000000000002 0 1.7577568045224714 0.039242726322421394 2.4785254304801634
50 1 2.0390000000000001 14.273000000000001 0 -1.8839301899799774 -0.59050316357729882 1.157555310953819
51 1 2.0390000000000001 12.234000000000002 2.0390000000000001 1.2388131798825104 0.21874427949733954 -0.017488755809466138
52 1 0 14.273000000000001 2.0390000000000001 -1.5017674706742632 0.21445655616256099 -0.14725776419132228
53 1 4.0780000000000003 12.234000000000002 0 3.5149803032564888 -0.35973933784927309 -0.098539103314407656
54 1 6.1170000000000009 14.273000000000001 0 1.7510151224058137 -0.57068524865894332 1.2781960117393156
55 1 6.1170000000000009 12.234000000000002 2.0390000000000001 0.19855639939155745 -0.7116312517239739 3.3526415808019721
56 1 4.0780000000000003 14.273000000000001 2.0390000000000001 -0.74555850973557869 0.22114869264668938 -0.97631713057007019
57 1 8.1560000000000006 12.234000000000002 0 0.10587740816717021 1.2264885923161548 -0.05390791315493057
58 1 10.195 14.273000000000001 0 1.1583374318724615 3.5959743802927573 1.6977168485194074
59 1 10.195 12.234000000000002 2.0390000000000001 1.221044596971953 1.2574223277773682 1.3110681706178771
60 1 8.1560000000000006 14.273000000000001 2.0390000000000001 1.7822603263714638 -1.9756560718977474 -0.61000245132802344
61 1 12.234000000000002 12.234000000000002 0 -1.6453410465143168 -0.78475621035056298 0.79323340212419879
62 1 14.273000000000001 14.273000000000001 0 -0.95616342545354949 0.74785182332651035 -1.5750125174020762
63 1 14.273000000000001 12.234000000000002 2.0390000000000001 1.7114407829992224 0.099520683567115367 0.4381698046271964
64 1 12.234000000000002 14.273000000000001 2.0390000000000001 -2.0136029341685222 -1.1161100798595203 0.29889394384560164
65 1 0 0 4.0780000000000003 2.2550117879776526 1.7158278266684981 1.9367996523493962
66 1 2.0390000000000001 2.0390000000000001 4.0780000000000003 0.92276369799313496 0.98939529435310558 -0.030924083407402599
67 1 2.0390000000000001 0 6.1170000000000009 -0.51650050557483862 -2.5918744287070909 2.9699760105523034
68 1 0 2.0390000000000001 6.1170000000000009 -4.1421513937936796 -1.7233173104141908 -1.2965833942358269
69 1 4.0780000000000003 0 4.0780000000000003 -0.87060118401957332 -0.86871528614180205 2.4464457457128965
70 1 6.1170000000000009 2.0390000000000001 4.0780000000000003 2.3374720778238229 1.0408043921367145 -0.237688966041982
71 1 6.1170000000000009 0 6.1170000000000009 -0.42136575095452122 -2.743516437038851 1.3905987758040816
72 1 4.0780000000000003 2.0390000000000001 6.1170000000000009 -0.13935833018411778 -1.7356329974156823 1.6414683286384935
73 1 8.1560000000000006 0 4.0780000000000003 1.275869401054375 0.23826131612797222 0.23587673555170385
74 1 10.195 2.0390000000000001 4.0780000000000003 -0.65014610322159638 -0.30530187828268229 -4.4363404278481688
75 1 10.195 0 6.1170000000000009 -1.2257303205924928 -1.833797537391715 -1.1261939957085967
76 1 8.1560000000000006 2.0390000000000001 6.1170000000000009 1.1629043185735899 0.86711932363028055 -1.4753153820540201
77 1 12.234000000000002 0 4.0780000000000003 0.49345150992173797 -0.075467304988069653 0.68396739938628648
78 1 14.273000000000001 2.0390000000000001 4.0780000000000003 -0.34051976250504196 -0.026689157590897794 -0.16431464065216309
79 1 14.273000000000001 0 6.1170000000000009 -3.0957240301403361 -1.0701507290743151 -0.9510741049148419
80 1 12.234000000000002 2.0390000000000001 6.1170000000000009 3.3194046679899816 0.49296100424121575 -2.6173780917876459
81 1 0 4.0780000000000003 4.0780000000000003 2.6817874500493217 1.0777303890299557 -1.1755850857617491
82 1 2.0390000000000001 6.1170000000000009 4.0780000000000003 -1.1260642987787679 -1.4715291346302366 0.62954116384567904
83 1 2.0390000000000001 4.0780000000000003 6.1170000000000009 2.0751352146974877 -0.82030031922786828 1.4689082415616033
84 1 0 6.1170000000000009 6.1170000000000009 -2.350359676428833 -0.079624982822109516 0.35837944927187459
85 1 4.0780000000000003 4.0780000000000003 4.0780000000000003 -1.775437764916501 0.58465965575634138 2.5955158324556722
86 1 6.1170000000000009 6.1170000000000009 4.0780000000000003 0.16616154427556823 0.028465366905298401 -0.069628918389911212
87 1 6.1170000000000009 4.0780000000000003 6.1170000000000009 -0.61501732169456702 0.17297688824065494 0.80255568642329644
88 1 4.0780000000000003 6.1170000000000009 6.1170000000000009 -0.74493207398221106 -1.6317831507964093 -0.059089623796594173
89 1 8.1560000000000006 4.0780000000000003 4.0780000000000003 0.9165794118126761 0.81127819386548949 0.81660115060263405
90 1 10.195 6.1170000000000009 4.0780000000000003 0.49106933422494842 0.7071781352653288 -2.5667333822897649
91 1 10.195 4.0780000000000003 6.1170000000000009 -2.0787554814634031 -0.2112658468392537 1.1875178512610518
92 1 8.1560000000000006 6.1170000000000009 6.1170000000000009 0.32692524354049507 2.0660537813772311 -0.51210669521409713
93 1 12.234000000000002 4.0780000000000003 4.0780000000000003 2.2753550027692175 2.3977116491837211 1.225591865628016
94 1 14.273000000000001 6.1170000000000009 4.0780000000000003 0.18411284280902193 -0.65596094666685056 0.20997826278850623
95 1 14.273000000000001 4.0780000000000003 6.1170000000000009 0.21460743288418099 0.92066105525618525 0.73630092073172426
96 1 12.234000000000002 6.1170000000000009 6.1170000000000009 -0.46070533888665849 0.29495871211643515 1.4294635721718616
97 1 0 8.1560000000000006 4.0780000000000003 -1.290920451503246 0.30481241922993912 -0.21458862749035623
98 1 2.0390000000000001 10.195 4.0780000000000003 2.4647397848105013 0.030716904321759591 1.0613622290483788
99 1 2.0390000000000001 8.1560000000000006 6.1170000000000009 0.55539615686908461 2.4116885972038995 0.20154387786117436
100 1 0 10.195 6.1170000000000009 -0.13663978864304266 0.43891188009621951 1.0580316788672528
101 1 4.0780000000000003 8.1560000000000006 4.0780000000000003 1.4638079860040396 1.2113583654229543 -0.66142236728081683
102 1 6.1170000000000009 10.195 4.0780000000000003 0.73665257288634955 2.5450949578634647 -0.080048446942073206
103 1 6.1170000000000009 8.1560000000000006 6.1170000000000009 -0.39952333437923238 1.7754651310166889 2.964264272337787
104 1 4.0780000000000003 10.195 6.1170000000000009 0.36043584178536064 0.92581785692510932 -0.73525214616375767
105 1 8.1560000000000006 8.1560000000000006 4.0780000000000003 -2.1703162507287708 -0.84091603253530578 0.88908282372142322
106 1 10.195 10.195 4.0780000000000003 2.0388049456664743 2.6967400327828392 -0.72959582590110272
107 1 10.195 8.1560000000000006 6.1170000000000009 0.19369647231484169 -2.4470556009502262 0.36568561559207591
108 1 8.1560000000000006 10.195 6.1170000000000009 -3.2982034388784154 1.0011482107578944 1.648749570653123
109 1 12.234000000000002 8.1560000000000006 4.0780000000000003 0.82292879927687523 -1.3204695138638314 2.230739523584063
110 1 14.273000000000001 10.195 4.0780000000000003 2.4626914011472496 -0.84162294783846936 0.47680670238090839
111 1 14.273000000000001 8.1560000000000006 6.1170000000000009 2.4977547722739537 1.5028212986215823 -0.13211826067828703
112 1 12.234000000000002 10.195 6.1170000000000009 2.6399241053322524 -1.1162949585575674 -0.30478909911637686
113 1 0 12.234000000000002 4.0780000000000003 -0.42765749589449503 -2.6025807448450728 2.128326863799276
114 1 2.0390000000000001 14.273000000000001 4.0780000000000003 -2.1604276585161006 -0.94152176211136429 1.6993073331050192
115 1 2.0390000000000001 12.234000000000002 6.1170000000000009 -0.24673377873363891 2.1514363184906231 -1.785028541276261
116 1 0 14.273000000000001 6.1170000000000009 0.33276592895766455 3.1416539600985156 -1.1912661665220472
117 1 4.0780000000000003 12.234000000000002 4.0780000000000003 1.101208482071047 0.762528592195726 0.4987903040060504
118 1 6.1170000000000009 14.273000000000001 4.0780000000000003 1.5831696041300796 -0.10710380263847115 0.69631657445933215
119 1 6.1170000000000009 12.234000000000002 6.1170000000000009 0.15082671703018805 -1.2210145289547754 0.75856288735376942
120 1 4.0780000000000003 14.273000000000001 6.1170000000000009 -2.1743180157127444 3.0253846781741491 -0.067765512191253
121 1 8.1560000000000006 12.234000000000002 4.0780000000000003 -0.17804275882747383 -0.15590126490245029 -0.49170578629346373
122 1 10.195 14.273000000000001 4.0780000000000003 -1.0109031071739973 -0.91911387222696739 1.8304976260329022
123 1 10.195 12.234000000000002 6.1170000000000009 -2.1507114111855854 2.8363733027569258 -0.46838150640932574
124 1 8.1560000000000006 14.273000000000001 6.1170000000000009 -0.087984368187275938 -1.8599578689119516 2.0184663995006651
125 1 12.234000000000002 12.234000000000002 4.0780000000000003 1.0503732660972196 -1.263412686390464 -0.92023159931657439
126 1 14.273000000000001 14.273000000000001 4.0780000000000003 -0.12735552663104324 0.843837832952957 1.0451937157951161
127 1 14.273000000000001 12.234000000000002 6.1170000000000009 -0.93931008270950456 -1.4536041973304901 0.54956895591343813
128 1 12.234000000000002 14.273000000000001 6.1170000000000009 -1.12476255123324 1.9781415562536913 -1.6543972140445244
129 1 0 0 8.1560000000000006 -0.34501894126677979 0.81158280839685482 -0.72641146874235374
130 1 2.0390000000000001 2.0390000000000001 8.1560000000000006 -4.2605065999359502 1.165298042709429 -1.1632751654829181
131 1 2.0390000000000001 0 10.195 0.5726490547740164 3.217699376643298 1.3058707015935918
132 1 0 2.0390000000000001 10.195 -0.019373778336055626 1.4696456529160735 -0.65863033777974234
133 1 4.0780000000000003 0 8.1560000000000006 -0.98448288227798186 2.5738226360693592 0.95811486494112741
134 1 6.1170000000000009 2.0390000000000001 8.1560000000000006 0.92748480331322103 -1.2569181425834848 0.69709420734337146
135 1 6.1170000000000009 0 10.195 2.2013555305788803 -1.498507314800404 1.2152637537552939
136 1 4.0780000000000003 2.0390000000000001 10.195 0.51571897829577895 -0.45426673978592236 -0.98980530055338767
137 1 8.1560000000000006 0 8.1560000000000006 -2.2711674731620084 -0.79060916479875731 0.51119563720327532
138 1 10.195 2.0390000000000001 8.1560000000000006 1.3680955458608808 0.52592385649702034 -1.2464796822480972
139 1 10.195 0 10.195 1.7916121771228848 1.4102650528886342 0.47477607918676279
140 1 8.1560000000000006 2.0390000000000001 10.195 0.14117495396823201 0.94244308405375798 2.6023984089826575
141 1 12.234000000000002 0 8.1560000000000006 -3.0063828638612557 -0.57130827460562261 -2.5004705472578568
142 1 14.273000000000001 2.0390000000000001 8.1560000000000006 -4.1407514298355599 -1.73603603285768 2.5062747616839949
143 1 14.273000000000001 0 10.195 -1.2369273202863402 1.7499773009147306 -0.057019893237401552
144 1 12.234000000000002 2.0390000000000001 10.195 0.52991254384355946 1.3978507317353916 1.6310931834052362
145 1 0 4.0780000000000003 8.1560000000000006 -1.0352023249701257 -0.3403495612528572 1.79734870920803
146 1 2.0390000000000001 6.1170000000000009 8.1560000000000006 -1.7671689410351625 -1.2179033531791854 -2.7331040970188094
147 1 2.0390000000000001 4.0780000000000003 10.195 -2.137224291136711 -1.1978836733071125 2.2248885052527037
148 1 0 6.1170000000000009 10.195 -1.6863201308008615 -4.0145303154545289 0.73776271267694271
149 1 4.0780000000000003 4.0780000000000003 8.1560000000000006 1.487776380151405 -1.3228694034991215 0.01012042227412723
150 1 6.1170000000000009 6.1170000000000009 8.1560000000000006 -1.5261999869507714 -0.040875345571498696 -4.3780015585014374
151 1 6.1170000000000009 4.0780000000000003 10.195 -1.0741672646535989 -1.7271672777325759 -0.56191593584268296
152 1 4.0780000000000003 6.1170000000000009 10.195 1.3910352655868319 -1.4396481549960185 -3.6594610319451619
153 1 8.1560000000000006 4.0780000000000003 8.1560000000000006 0.24606009222093933 -1.6923802444356657 2.5204139464587962
154 1 10.195 6.1170000000000009 8.1560000000000006 1.8502500883719319 2.8314420240340912 4.0194554887556686
155 1 10.195 4.0780000000000003 10.195 0.95868891277481472 -1.1275981630982383 0.98797838809093752
156 1 8.1560000000000006 6.1170000000000009 10.195 1.7204228631782865 0.96115478769951157 -2.7243951610416111
157 1 12.234000000000002 4.0780000000000003 8.1560000000000006 2.0659361274135088 -0.23859885586548221 0.92102423393699373
158 1 14.273000000000001 6.1170000000000009 8.1560000000000006 -2.0329720334066699 -1.3252405665565892 0.7598933907834593
159 1 14.273000000000001 4.0780000000000003 10.195 -0.91475431005269603 0.87312930810266109 -0.48084529221343619
160 1 12.234000000000002 6.1170000000000009 10.195 0.32727071620790943 -2.2702942189981115 0.71539811742204473
161 1 0 8.1560000000000006 8.1560000000000006 -0.6250120404092715 1.0409427890714031 -0.91393993380587979
162 1 2.0390000000000001 10.195 8.1560000000000006 0.69236167540479077 1.2851666687664085 -3.6771284553930403
163 1 2.0390000000000001 8.1560000000000006 10.195 -0.029957315998315109 -0.42621800504604895 2.3566441422704023
164 1 0 10.195 10.195 1.1220298580759784 -0.076948150464216464 -3.5889956375371992
165 1 4.0780000000000003 8.1560000000000006 8.1560000000000006 0.90214357673696666 0.14659419813435332 -0.12785505122723095
166 1 6.1170000000000009 10.195 8.1560000000000006 0.11173520017520139 -1.8976390036986936 0.1132699434361039
167 1 6.1170000000000009 8.1560000000000006 10.195 1.8934605531348281 1.4052644848545732 0.5385116616136989
168 1 4.0780000000000003 10.195 10.195 -0.080246560361127192 -2.0748930295596195 0.66528883766556335
169 1 8.1560000000000006 8.1560000000000006 8.1560000000000006 -1.7865901374739765 3.3686632834046764 1.2762028660603766
170 1 10.195 10.195 8.1560000000000006 1.6717628397062518 1.1780898766171488 -0.35863342711641977
171 1 10.195 8.1560000000000006 10.195 1.6293053184167889 -0.85368833913913311 0.43668632591119155
172 1 8.1560000000000006 10.195 10.195 1.0688461004762269 -1.3771539063342624 0.83213474393657327
173 1 12.234000000000002 8.1560000000000006 8.1560000000000006 0.0359427221463244 2.7087476336674303 -1.6137109486735977
174 1 14.273000000000001 10.195 8.1560000000000006 -2.8727185878513839 -0.36886110080843981 1.0571865534894127
175 1 14.273000000000001 8.1560000000000006 10.195 -3.5679673708255124 1.6011121260745478 1.7837755206652013
176 1 12.234000000000002 10.195 10.195 1.7664859813262623 -0.0046895290196286186 -1.1332804918436685
177 1 0 12.234000000000002 8.1560000000000006 -0.92065908060621549 -0.45853652048814902 -0.75422853757453334
178 1 2.0390000000000001 14.273000000000001 8.1560000000000006 -1.4046274903083416 -3.3325277931405517 0.25355507122320303
179 1 2.0390000000000001 12.234000000000002 10.195 -3.037205816695864 2.9655153589989691 0.22666967515865452
180 1 0 14.273000000000001 10.195 2.1364925474953851 0.83064656477305165 2.1945071647332179
181 1 4.0780000000000003 12.234000000000002 8.1560000000000006 -2.3673191192709284 1.1680597126522394 -3.3233836311941967
182 1 6.1170000000000009 14.273000000000001 8.1560000000000006 -1.0067070271546861 -0.43088789994566584 0.079233833165771747
183 1 6.1170000000000009 12.234000000000002 10.195 2.2612952486370586 -2.0108402422802265 1.4522309222482768
184 1 4.0780000000000003 14.273000000000001 10.195 0.022078127964114787 1.7689225693564063 -0.6282442833571058
185 1 8.1560000000000006 12.234000000000002 8.1560000000000006 -0.00791661013529797 -0.28238283556490273 1.1772433979532526
186 1 10.195 14.273000000000001 8.1560000000000006 -0.62639664180603427 0.71337743854688884 0.1511326887574958
187 1 10.195 12.234000000000002 10.195 1.1764265114925212 0.91855415226022619 1.5253335395004817
188 1 8.1560000000000006 14.273000000000001 10.195 0.53935130449542801 1.7897870507638209 1.0024083000772093
189 1 12.234000000000002 12.234000000000002 8.1560000000000006 -1.7565503733212802 -0.67482346409125604 0.813908581607799
190 1 14.273000000000001 14.273000000000001 8.1560000000000006 0.480770422858258 -1.869223118080344 -0.97394294633603629
191 1 14.273000000000001 12.234000000000002 10.195 -1.5470110190326576 0.38831283402230915 2.9822402476509016
192 1 12.234000000000002 14.273000000000001 10.195 -0.23090323372678775 3.7611007274029342 2.366083894964631
193 1 0 0 12.234000000000002 -0.96952648886774728 0.69132437128566926 0.23820256189989178
194 1 2.0390000000000001 2.0390000000000001 12.234000000000002 0.18747943332536587 1.9356949599293258 3.3173663855266322
195 1 2.0390000000000001 0 14.273000000000001 0.309375329779571 -0.53026319174710213 1.7603447222902351
196 1 0 2.0390000000000001 14.273000000000001 0.58538129848785736 -1.4745463204088607 -4.5307927117120403
197 1 4.0780000000000003 0 12.234000000000002 -0.67823230871249063 1.3446883389706159 -1.3023109745451169
198 1 6.1170000000000009 2.0390000000000001 12.234000000000002 0.93051197531668683 -0.6902025324035107 0.6958804705844378
199 1 6.1170000000000009 0 14.273000000000001 3.1758944667569313 2.5062865427713459 -2.1113154409542707
200 1 4.0780000000000003 2.0390000000000001 14.273000000000001 0.69564542988117073 -1.2499109725573978 -1.1789906186868662
201 1 8.1560000000000006 0 12.234000000000002 1.4810699265815839 0.21833904246511854 1.5144069032383431
202 1 10.195 2.0390000000000001 12.234000000000002 -0.86655460069840007 -0.57555647075575744 -1.4341450734221541
203 1 10.195 0 14.273000000000001 1.6027208554622252 -0.52433014861603566 1.342341288666955
204 1 8.1560000000000006 2.0390000000000001 14.273000000000001 1.7914296900814448 1.5302710776464747 -0.31033886311364417
205 1 12.234000000000002 0 12.234000000000002 0.53155055623778558 1.3460196279552734 -0.76723084910766226
206 1 14.273000000000001 2.0390000000000001 12.234000000000002 -5.192401187895868 1.6398911331728936 3.7218748274560718
207 1 14.273000000000001 0 14.273000000000001 1.4316263856731199 -0.80213410699729981 1.3036888565780427
208 1 12.234000000000002 2.0390000000000001 14.273000000000001 -0.85552562215717798 -1.8881749790286209 -0.68601952991734705
209 1 0 4.0780000000000003 12.234000000000002 0.61746475060930384 0.37827217196775192 0.89256377959458211
210 1 2.0390000000000001 6.1170000000000009 12.234000000000002 -0.35762696519828274 1.0882857140634763 -0.82957335731468473
211 1 2.0390000000000001 4.0780000000000003 14.273000000000001 1.0995716035391008 0.56306319899655444 -1.6155110506539985
212 1 0 6.1170000000000009 14.273000000000001 -3.0902698765329859 0.25103773675729252 -1.8069119322930605
213 1 4.0780000000000003 4.0780000000000003 12.234000000000002 1.0084252766853541 -1.6596237865857371 -0.037596892716574591
214 1 6.1170000000000009 6.1170000000000009 12.234000000000002 -1.2670678181811492 -0.064642243642997088 -0.98504071201093535
215 1 6.1170000000000009 4.0780000000000003 14.273000000000001 1.5415414041698223 -1.0930658541013207 -0.78228953123202161
216 1 4.0780000000000003 6.1170000000000009 14.273000000000001 0.81154692690806096 0.90995192488055265 2.7054918414735218
217 1 8.1560000000000006 4.0780000000000003 12.234000000000002 0.84825982510945763 -0.067387397213912709 2.747816826417762
218 1 10.195 6.1170000000000009 12.234000000000002 -0.041079061446841703 -0.83994644479417968 -2.6537481521643453
219 1 10.195 4.0780000000000003 14.273000000000001 1.4401315859878332 -1.4823624544818956 -0.34992899998724536
220 1 8.1560000000000006 6.1170000000000009 14.273000000000001 -4.736449541738593 0.041687660547701372 -0.51007871295907581
221 1 12.234000000000002 4.0780000000000003 12.234000000000002 -0.9376285363334973 1.3269107048887794 -0.58367133655942094
222 1 14.273000000000001 6.1170000000000009 12.234000000000002 1.3157671867125036 -1.5778430098063527 0.49804815615441989
223 1 14.273000000000001 4.0780000000000003 14.273000000000001 -1.1233982427983809 -2.9475185181994279 1.0233062533478814
224 1 12.234000000000002 6.1170000000000009 14.273000000000001 0.20397847012543446 -1.0717958857551553 0.93336946034168522
225 1 0 8.1560000000000006 12.234000000000002 0.35130382246276731 2.0557246919828338 -1.1984100107570921
226 1 2.0390000000000001 10.195 12.234000000000002 2.078135001131503 -1.969360435963093 1.3322231036212397
227 1 2.0390000000000001 8.1560000000000006 14.273000000000001 -0.39695491967292329 -0.92362844920895315 -0.25746249989949038
228 1 0 10.195 14.273000000000001 -0.51330665372187889 4.0451046037223835 -0.93965292895818997
229 1 4.0780000000000003 8.1560000000000006 12.234000000000002 -0.19059996898149237 -0.41466706462748337 -0.48874660155516131
230 1 6.1170000000000009 10.195 12.234000000000002 0.93993810856305138 0.88271554020871068 0.030543002487219247
231 1 6.1170000000000009 8.1560000000000006 14.273000000000001 -1.4598989472763659 -0.16165644404287657 -1.5020967394192746
232 1 4.0780000000000003 10.195 14.273000000000001 1.7650344097538375 -1.4357382149215467 -1.8532639846852517
233 1 8.1560000000000006 8.1560000000000006 12.234000000000002 0.47115422101063659 1.1340763233091959 -2.3224823066446163
234 1 10.195 10.195 12.234000000000002 -0.070584281478071498 -0.12218644811979028 -3.9655749568113854
235 1 10.195 8.1560000000000006 14.273000000000001 -1.3199280666202875 -0.32723906063113056 0.29611796614010644
236 1 8.1560000000000006 10.195 14.273000000000001 -1.3437369631902538 -1.1725807298472786 1.5971080486178741
237 1 12.234000000000002 8.1560000000000006 12.234000000000002 1.0540427528715093 0.4079566586056777 0.3321918028458874
238 1 14.273000000000001 10.195 12.234000000000002 1.8845687998442675 1.2987665543243947 -2.2578127861651782
239 1 14.273000000000001 8.1560000000000006 14.273000000000001 1.6629553702250093 -0.24532247903417012 -3.5699568412871829
240 1 12.234000000000002 10.195 14.273000000000001 -2.8482256630970948 2.9328471076238403 -0.99636330979583598
241 1 0 12.234000000000002 12.234000000000002 1.678177495799714 -1.2214305053681709 1.5667479472130985
242 1 2.0390000000000001 14.273000000000001 12.234000000000002 -1.0700948569533231 -1.4562996493448661 -2.4944030643162884
243 1 2.0390000000000001 12.234000000000002 14.273000000000001 -0.25390250293614908 0.057793481951146836 1.1134028110968042
244 1 0 14.273000000000001 14.273000000000001 -0.92497483647262735 3.5753986952889529 -1.7976455941957028
245 1 4.0780000000000003 12.234000000000002 12.234000000000002 1.1052481215618386 0.57618457751558483 -1.0672454392553836
246 1 6.1170000000000009 14.273000000000001 12.234000000000002 -0.081457800229929933 0.60333381186930457 0.028811013799863307
247 1 6.1170000000000009 12.234000000000002 14.273000000000001 2.0698708881485315 -2.1552832510338527 -1.1602897550923019
248 1 4.0780000000000003 14.273000000000001 14.273000000000001 2.1346758226763676 2.5262480768526809 0.0090111486316668699
249 1 8.1560000000000006 12.234000000000002 12.234000000000002 -0.75977523126617719 -2.0857309497838408 -4.3262536416113404
250 1 10.195 14.273000000000001 12.234000000000002 3.1065730991041343 1.2121211329328381 -0.63280791677595172
251 1 10.195 12.234000000000002 14.273000000000001 -0.64402208052342191 -1.4776169036255293 0.63890804168598769
252 1 8.1560000000000006 14.273000000000001 14.273000000000001 -0.7141961559865202 -1.0052305149589671 -0.33433033586315652
253 1 12.234000000000002 12.234000000000002 12.234000000000002 1.5827623874288328 -0.36749030171404312 -1.2077072921366943
254 1 14.273000000000001 14.273000000000001 12.234000000000002 -0.38676973790268948 -1.2794674641950368 -1.1429731564717649
255 1 14.273000000000001 12.234000000000002 14.273000000000001 -0.71978409919985831 1.182738642366745 1.0010505054239136
256 1 12.234000000000002 14.273000000000001 14.273000000000001 2.1836855512499551 0.21273251713542465 -1.5180380057127612
