LAMMPS (4 Jul 2026)
  using 1 OpenMP thread(s) per MPI task
# exaStamp parity counterpart of LAMMPS examples/snap_ttm/snap_ttm_couplage_ttm (Te-dependent SNAP + fix ttm),
# made deterministic: 4^3 TTM grid = exaStamp 4^3 cell grid (grid_subdiv 1), non uniform initial Te (ttm_grid.in,
# 1.5/2.5/3.5/4.5 eV along x), Langevin coupling off (gamma_p > 0 is required: 1e-50 -> noise ~1e-18 eV/ang,
# gamma_s 0), so Te only evolves by diffusion. NEEDS the fix ttm pre_force patch (src/EXTRA-FIX/fix_ttm.cpp):
# without it f_twotemp is set after the pair style (one step late).
variable nsteps index 100
units           metal
boundary        p p p
lattice         fcc 4.078
Lattice spacing in x,y,z = 4.078 4.078 4.078
region          box block 0 4 0 4 0 4
create_box      1 box
Created orthogonal box = (0 0 0) to (16.312 16.312 16.312)
  1 by 1 by 1 MPI processor grid
create_atoms    1 box
Created 256 atoms
  using lattice units in orthogonal box = (0 0 0) to (16.312 16.312 16.312)
  create_atoms CPU = 0.001 seconds
mass            1 196.9665

#              seed   C_e       rho_e    kappa_e   gamma_p gamma_s v_0     Nx Ny Nz
fix twotemp all ttm 342785 1.2470e-5 0.087614 0.0005365 1e-50   0.0     58.4613 12 12 12 infile ttm_grid.in

pair_style hybrid/overlay zbl 2.0 3.5 snap_ttm
pair_coeff 1 1 zbl 79 79
pair_coeff * * snap_ttm dir.inputs/Au.snapcoeff dir.inputs/Au.snapparam dir.inputs/Au.snapbetas Au f_twotemp
Reading potential file dir.inputs/Au.snapcoeff with DATE: 2017-09-18
SNAPTTM Element = Au, Radius 4.25, Weight 1
SNAPTTM keyword rcutfac 0.5
SNAPTTM keyword twojmax 8
SNAPTTM keyword rfac0 0.99363
SNAPTTM keyword rmin0 0.0
SNAPTTM keyword bzeroflag 0
SNAPTTM keyword quadraticflag 0

compute avgte all reduce ave f_twotemp
thermo          1
thermo_style    custom step temp pe ke etotal press c_avgte
thermo_modify   norm yes format float %.16g

timestep 1.0e-3
neighbor 1.0 bin
neigh_modify once no every 1 delay 0 check yes

velocity all create 600.0 3423 dist gaussian
write_dump all custom init.dump id type x y z vx vy vz modify sort id format float %.17g
WARNING: Calling write_dump before a full system init (src/write_dump.cpp:87)
fix 1 all nve
run             ${nsteps}
run             100
Neighbor list info ...
  update: every = 1 steps, delay = 0 steps, check = yes
  max neighbors/atom: 2000, page size: 100000
  master list distance cutoff = 5.25
  ghost atom cutoff = 5.25
  binsize = 2.625, bins = 7 7 7
  2 neighbor lists, perpetual/occasional/extra = 2 0 0
  (1) pair zbl, perpetual, half/full from (2)
      attributes: half, newton on
      pair build: halffull/newton
      stencil: none
      bin: none
  (2) pair snap_ttm, perpetual
      attributes: full, newton on, cut 5.25
      pair build: full/bin/atomonly
      stencil: full/bin/3d
      bin: standard
Per MPI rank memory allocation (min/avg/max) = 4.742 | 4.742 | 4.742 Mbytes
   Step          Temp          PotEng         KinEng         TotEng         Press         c_avgte    
         0  600 -15966.72334647956 0.07725313353515627 -15966.64609334602 608918.133723086 32879.48751746956
         1  597.6417762725489 -15967.76015826025 0.07694949991428533 -15967.68320876033 675450.0311744898 35055.33595612557
         2  595.9314213893512 -15967.33499172844 0.07672928279064503 -15967.25826244565 660900.3413500825 34858.90519430245
         3  594.1820011507222 -15967.14239267012 0.07650403579847186 -15967.06588863432 656449.3099266342 34853.90768986
         4  592.3051151791598 -15967.00694045629 0.07626237692748623 -15966.93067807937 653375.2373870811 34844.77416851591
         5  590.2466290452326 -15966.89911912757 0.07599733608717865 -15966.82312179148 650669.2397455523 34820.12533209026
         6  587.9325558895397 -15966.79942633155 0.07569938708300056 -15966.72372694446 647572.9388738705 34767.06895464934
         7  585.3191254544088 -15966.73951171383 0.07536289426568386 -15966.66414881957 646463.0388002112 34764.9766348132
         8  582.3773948670962 -15966.67925635747 0.07498413108920701 -15966.60427222638 644894.5880355879 34741.06556962003
         9  579.0703757831635 -15966.63960559726 0.07455833511104974 -15966.56504726215 644352.9289969158 34743.30858143637
        10  575.3663222210613 -15966.59724101617 0.07408141887029232 -15966.5231595973 643383.0707769914 34727.73401845165
        11  571.236621131385 -15966.56330714051 0.07354969828739059 -15966.48975744223 642766.6385848144 34719.41255209821
        12  566.6693164396085 -15966.54009993132 0.07296163395530798 -15966.46713829737 642683.454718802 34724.61713929913
        13  561.6518148625222 -15966.51252382631 0.07231560442306215 -15966.44020822189 642183.275938909 34714.12476559135
        14  556.1839458771552 -15966.49632042773 0.07161158773493 -15966.42470883999 642304.8015871368 34720.78591940107
        15  550.2843151507409 -15966.48238661644 0.070851979467737 -15966.41153463697 642477.197081423 34727.04204462566
        16  543.952843933654 -15966.46554728898 0.07003676948205764 -15966.39551051949 642380.1133661505 34723.14375918687
        17  537.1992646071483 -15966.45548276149 0.06916721087280628 -15966.38631555062 642652.8277286862 34729.25441697957
        18  530.0418650674321 -15966.44680266933 0.06824565830212935 -15966.37855701103 642956.6870851995 34734.98868467293
        19  522.4953906267397 -15966.43929766661 0.06727401030598526 -15966.37202365631 643287.0486027526 34740.3612221569
        20  514.5769309798692 -15966.43278950785 0.06625446727183121 -15966.36653504058 643639.934700424 34745.38810337647
        21  506.3056332642592 -15966.42712628833 0.06518949449360945 -15966.36193679384 644011.9138238532 34750.08632191797
        22  497.7024471055156 -15966.42217853336 0.06408178934502741 -15966.35809674402 644400.0031455068 34754.47333257402
        23  488.7899366529791 -15966.41479065328 0.06293425707815527 -15966.3518563962 644602.5287221512 34752.37863450957
        24  479.5924456863978 -15966.40839595193 0.06175003208177244 -15966.34664591985 644847.422181703 34750.97922668509
        25  470.1349189694833 -15966.40538844218 0.06053232612448227 -15966.34485611606 645295.0640477384 34755.33439526357
        26  460.4428867121841 -15966.40271718746 0.05928442635414864 -15966.34343276111 645748.1866840547 34759.39060323578
        27  450.5432790195778 -15966.40032675285 0.05800980016244435 -15966.34231695268 646205.2388917725 34763.16736879967
        28  440.4637769013331 -15966.39817047749 0.05671201162392994 -15966.34145846587 646665.1144762133 34766.6831862518
        29  430.2328113514488 -15966.3962092566 0.05539472137756528 -15966.34081453523 647127.3746232889 34769.95551477095
        30  419.8791809277852 -15966.39441040767 0.05406163738807704 -15966.34034877028 647589.6033889375 34773.00078769441
        31  409.4319479820749 -15966.39274675802 0.05271650158503063 -15966.34003025643 648051.7836763419 34775.83443635218
        32  398.9208062267356 -15966.38962262042 0.051363137188977 -15966.33825948323 648409.4197030456 34775.27406999673
        33  388.3749448006441 -15966.38827656063 0.0500053024539885 -15966.33827125818 648873.5816407183 34777.95130158867
        34  377.8229918217017 -15966.38700196721 0.04864668339975695 -15966.33835528381 649333.001079748 34780.44167275757
        35  367.2939386873593 -15966.38452523826 0.04729101282011345 -15966.33723422544 649704.1663137539 34780.19163597986
        36  356.8161088488717 -15966.38226750859 0.0459419375073279 -15966.33632557108 650081.1932784769 34780.13534750712
        37  346.4177786735981 -15966.38131223836 0.04460309819137281 -15966.33670914017 650532.6709705604 34782.47363929598
        38  336.1271623606177 -15966.38038397106 0.04327812759772991 -15966.33710584346 650976.0285735037 34784.64851325658
        39  325.9715793682009 -15966.3794796717 0.04197054324932901 -15966.33750912845 651410.8824628495 34786.67136824971
        40  315.9776454657052 -15966.37859744505 0.0406837720654773 -15966.33791367299 651836.2443448767 34788.5528135015
        41  306.1712030225388 -15966.37773635157 0.03942114138619938 -15966.33831521019 652251.9786556741 34790.30272194456
        42  296.5771524847098 -15966.37689620143 0.03818585727396281 -15966.33871034415 652656.302412968 34791.93028029589
        43  287.2193557470289 -15966.37607741052 0.03698099207234462 -15966.33909641845 653049.1270225666 34793.4440359841
        44  278.1207229586713 -15966.37528089551 0.03580949558270072 -15966.33947139993 653430.5018341478 34794.85194105885
        45  269.3031724258463 -15966.37450796056 0.03467418990142519 -15966.33983377066 653801.0821387073 34796.16139322868
        46  260.7873356619538 -15966.37376017188 0.03357773144361755 -15966.34018244043 654158.4519724986 34797.3792741779
        47  252.592417326314 -15966.37303926084 0.03252259290946276 -15966.34051666793 654502.3100261275 34798.51198531612
        48  244.7363012780521 -15966.37234708518 0.03151107693922265 -15966.34083600824 654832.3222181363 34799.56548111281
        49  237.2355011124751 -15966.37168556255 0.03054530974453625 -15966.3411402528 655148.3867413109 34800.54530016291
        50  230.1051844200626 -15966.37063266136 0.02962724423189142 -15966.34100541713 655422.4690642231 34800.59101453376
        51  223.3588855574773 -15966.37006784683 0.02875862302039246 -15966.34130922381 655711.2992371323 34801.49910964407
        52  217.0084985872804 -15966.36953721791 0.02794097753271157 -15966.34159624038 655984.9422351574 34802.343695471
        53  211.0644139924632 -15966.3690426123 0.02717564559779877 -15966.3418669667 656243.0227215978 34803.12921304138
        54  205.535402484281 -15966.3685857212 0.02646375649053374 -15966.34212196471 656485.3697032108 34803.85979298517
        55  200.4286545839817 -15966.3678732777 0.02580623602808008 -15966.34206704167 656692.5775049824 34803.93689940547
        56  195.7497136802112 -15966.36751684677 0.0252037979506766 -15966.34231304882 656905.0909462245 34804.61099073206
        57  191.5024871210817 -15966.36720072968 0.02465694534979911 -15966.34254378433 657101.9100382159 34805.23793681047
        58  187.6892307719207 -15966.36692597657 0.02416596867988992 -15966.34276000789 657282.4076799785 34805.82103473453
        59  184.3105413586721 -15966.36669341789 0.02373094477253073 -15966.34296247312 657446.9243267742 34806.36335106543
        60  181.3654374957989 -15966.36650366808 0.02335174726920832 -15966.34315192082 657595.8004107384 34806.86773793806
        61  178.8513533918925 -15966.36635711973 0.02302804581087882 -15966.34332907392 657728.9322627513 34807.33684804523
        62  176.7641737897868 -15966.36625394238 0.02275931053668994 -15966.34349463184 657846.6731702114 34807.77314857783
        63  175.0982788424695 -15966.36619408726 0.02254481786198887 -15966.34364926939 657949.2045734331 34808.17893355702
        64  173.8465332800322 -15966.36586793813 0.02238364908351053 -15966.34348428905 658016.9843063105 34807.92900437801
        65  173.0004475382295 -15966.36591535684 0.02227471112552106 -15966.34364064572 658091.6278490073 34808.32388952113
        66  172.5502129288267 -15966.36600317574 0.02221674106818383 -15966.34378643467 658151.8842565404 34808.69115599935
        67  172.4846548340283 -15966.36625459287 0.02220830012109754 -15966.34404629275 658206.399781466 34809.28508490743
        68  172.7914137348556 -15966.36641205035 0.02224779693164539 -15966.34416425342 658238.8092878085 34809.58512529248
        69  173.4569983751508 -15966.36660765268 0.02233349443013818 -15966.34427415825 658258.2926249752 34809.86418070235
        70  174.4668105798809 -15966.36684004424 0.02246351302530059 -15966.34437653121 658265.2475020685 34810.12371891811
        71  175.8052557972111 -15966.36710771004 0.02263584483714043 -15966.3444718652 658260.1795126679 34810.36510479116
        72  177.4558511181021 -15966.36740899268 0.02284836760503591 -15966.34456062507 658244.0191163188 34810.58960805749
        73  179.4012946385443 -15966.36774210151 0.02309885361848562 -15966.3446432479 658217.00277662 34810.79840934979
        74  181.6235361332701 -15966.36810512274 0.02338497881671799 -15966.34472014392 658179.7148907906 34810.99260701032
        75  184.1038954000668 -15966.36849603652 0.02370433802613967 -15966.34479169849 658132.978034132 34811.17322237788
        76  186.8231466490076 -15966.368912728 0.02405445582588978 -15966.34485827217 658077.2677745966 34811.34120540471
        77  189.7616214465691 -15966.36935300356 0.02443279980243262 -15966.34492020376 658013.5758125536 34811.4974396029
        78  192.8992866688289 -15966.36981460046 0.02483679058643905 -15966.34497780987 657942.2598815224 34811.64274670045
        79  196.2158152366162 -15966.37029519703 0.02526381096030643 -15966.34503138607 657864.200067152 34811.7778909253
        80  199.6907074363245 -15966.37074356401 0.025711221478847 -15966.34503234253 657776.8218276827 34811.80526334847
        81  203.3033594210226 -15966.37125845866 0.02617636928916355 -15966.34508208937 657687.1341281501 34811.92904106707
        82  207.0331972329179 -15966.37178494847 0.02665660538674158 -15966.34512834308 657592.9351730081 34812.04416169971
        83  210.859772175758 -15966.37232064396 0.0271492968951441 -15966.34517134706 657494.884342212 34812.15123072782
        84  214.7627532065658 -15966.37286315307 0.02765182608640773 -15966.34521132698 657393.1944791905 34812.25081128527
        85  218.7220193380109 -15966.37341009502 0.02816160227833064 -15966.34524849274 657288.447003213 34812.34342711999
        86  222.7177511925198 -15966.37395911488 0.0286760736225424 -15966.34528304126 657181.4979035796 34812.42956534874
        87  226.7305119632126 -15966.37450789103 0.02919273752864734 -15966.3453151535 657072.9219992321 34812.50967901898
        88  230.7413537363923 -15966.37505380618 0.02970915435380041 -15966.34534465183 656963.2255721799 34812.5841894929
        89  234.7319240513079 -15966.37559537683 0.03022296112283307 -15966.3453724157 656853.4510890126 34812.65348865915
        90  238.6844748591194 -15966.37613009103 0.03073187268176699 -15966.34539821835 656743.9421473786 34812.71794100082
        91  242.5818498446348 -15966.37667762203 0.03123368006542132 -15966.34544394196 656636.6852369712 34812.82217067427
        92  246.4076369539123 -15966.3771909748 0.03172627013613815 -15966.34546470467 656529.2968850153 34812.87482529598
        93  250.1462815200311 -15966.37771028722 0.03220764014931626 -15966.34550264707 656425.4046367413 34812.96210435651
        94  253.7829861522468 -15966.3781951528 0.03267588486361706 -15966.34551926793 656322.7176251126 34813.00497193394
        95  257.3037335810373 -15966.37866390779 0.03312919948238358 -15966.34553470831 656222.7281871598 34813.0448413277
        96  260.6953940384081 -15966.37911494596 0.03356589347941553 -15966.34554905248 656125.974657923 34813.08192223252
        97  263.9457491374972 -15966.37954676865 0.0339843936735932 -15966.34556237498 656032.9301296412 34813.11640967694
        98  267.0435565368596 -15966.37995800217 0.03438325255474177 -15966.34557474962 655943.8789136832 34813.1484850491
        99  269.9785547319492 -15966.38034739234 0.03476114890055961 -15966.34558624344 655859.492598788 34813.1783170507
       100  272.7414523385676 -15966.38071380325 0.03511688639680637 -15966.34559691685 655779.9592701728 34813.20606258456
Loop time of 6.43766 on 1 procs for 100 steps with 256 atoms

Performance: 1.342 ns/day, 17.882 hours/ns, 15.534 timesteps/s, 3.977 katom-step/s
98.1% CPU use with 1 MPI tasks x 1 OpenMP threads

MPI task timing breakdown:
Section |  min time  |  avg time  |  max time  |%varavg| %total
---------------------------------------------------------------
Pair    | 6.4265     | 6.4265     | 6.4265     |   0.0 | 99.83
Neigh   | 0          | 0          | 0          |   0.0 |  0.00
Comm    | 0.00049519 | 0.00049519 | 0.00049519 |   0.0 |  0.01
Output  | 0.002366   | 0.002366   | 0.002366   |   0.0 |  0.04
Modify  | 0.0079622  | 0.0079622  | 0.0079622  |   0.0 |  0.12
Other   |            | 0.0003533  |            |       |  0.01

Nlocal:            256 ave         256 max         256 min
Histogram: 1 0 0 0 0 0 0 0 0 0
Nghost:            843 ave         843 max         843 min
Histogram: 1 0 0 0 0 0 0 0 0 0
Neighs:           5376 ave        5376 max        5376 min
Histogram: 1 0 0 0 0 0 0 0 0 0
FullNghs:        10752 ave       10752 max       10752 min
Histogram: 1 0 0 0 0 0 0 0 0 0

Total # of neighbors = 10752
Ave neighs/atom = 42
Neighbor list builds = 0
Dangerous builds = 0
Total wall time: 0:00:06
