LAMMPS (4 Jul 2026)
  using 1 OpenMP thread(s) per MPI task
# exaStamp parity counterpart of LAMMPS examples/snap_ttm/snap_ttm_couplage_ttm (Te-dependent SNAP + fix ttm),
# made deterministic: 4^3 TTM grid = exaStamp 4^3 cell grid (grid_subdiv 1), non uniform initial Te (ttm_grid.in,
# 1.5/2.5/3.5/4.5 eV along x), Langevin coupling off (gamma_p > 0 is required: 1e-50 -> noise ~1e-18 eV/ang,
# gamma_s 0), so Te only evolves by diffusion. NEEDS the fix ttm pre_force patch (src/EXTRA-FIX/fix_ttm.cpp):
# without it f_twotemp is set after the pair style (one step late).
variable nsteps index 100
units           metal
boundary        p p p
lattice         fcc 4.078
Lattice spacing in x,y,z = 4.078 4.078 4.078
region          box block 0 4 0 4 0 4
create_box      1 box
Created orthogonal box = (0 0 0) to (16.312 16.312 16.312)
  1 by 1 by 1 MPI processor grid
create_atoms    1 box
Created 256 atoms
  using lattice units in orthogonal box = (0 0 0) to (16.312 16.312 16.312)
  create_atoms CPU = 0.001 seconds
mass            1 196.9665

#              seed   C_e       rho_e    kappa_e   gamma_p gamma_s v_0     Nx Ny Nz
fix twotemp all ttm 342785 1.2470e-5 0.087614 0.0005365 1e-50   0.0     58.4613 8 8 8 infile ttm_grid.in

pair_style hybrid/overlay zbl 2.0 3.5 snap_ttm
pair_coeff 1 1 zbl 79 79
pair_coeff * * snap_ttm dir.inputs/Au.snapcoeff dir.inputs/Au.snapparam dir.inputs/Au.snapbetas Au f_twotemp
Reading potential file dir.inputs/Au.snapcoeff with DATE: 2017-09-18
SNAPTTM Element = Au, Radius 4.25, Weight 1
SNAPTTM keyword rcutfac 0.5
SNAPTTM keyword twojmax 8
SNAPTTM keyword rfac0 0.99363
SNAPTTM keyword rmin0 0.0
SNAPTTM keyword bzeroflag 0
SNAPTTM keyword quadraticflag 0

compute avgte all reduce ave f_twotemp
thermo          1
thermo_style    custom step temp pe ke etotal press c_avgte
thermo_modify   norm yes format float %.16g

timestep 1.0e-3
neighbor 1.0 bin
neigh_modify once no every 1 delay 0 check yes

displace_atoms all move 0.1 0.07 0.05 units box   # move atoms off the subcell boundaries (even subdiv)
Displacing atoms ...
velocity all create 600.0 3423 dist gaussian
write_dump all custom init.dump id type x y z vx vy vz modify sort id format float %.17g
WARNING: Calling write_dump before a full system init (src/write_dump.cpp:87)
fix 1 all nve
run             ${nsteps}
run             100
Neighbor list info ...
  update: every = 1 steps, delay = 0 steps, check = yes
  max neighbors/atom: 2000, page size: 100000
  master list distance cutoff = 5.25
  ghost atom cutoff = 5.25
  binsize = 2.625, bins = 7 7 7
  2 neighbor lists, perpetual/occasional/extra = 2 0 0
  (1) pair zbl, perpetual, half/full from (2)
      attributes: half, newton on
      pair build: halffull/newton
      stencil: none
      bin: none
  (2) pair snap_ttm, perpetual
      attributes: full, newton on, cut 5.25
      pair build: full/bin/atomonly
      stencil: full/bin/3d
      bin: standard
Per MPI rank memory allocation (min/avg/max) = 4.704 | 4.704 | 4.704 Mbytes
   Step          Temp          PotEng         KinEng         TotEng         Press         c_avgte    
         0  600 -15967.66086522 0.07725313353515627 -15967.58361208647 668360.3172286726 34813.57501849696
         1  597.1607025498739 -15967.66049960916 0.07688755916005523 -15967.58361205 668368.8693145373 34813.57501849696
         2  594.7378123134879 -15967.32310110664 0.07657559938843431 -15967.24652550725 659499.4563808917 34813.57501849702
         3  592.5270984283466 -15967.13198556137 0.07629095843013955 -15967.05569460294 655253.8851462768 34813.57501849705
         4  590.3279719561205 -15967.00455421047 0.0760078094117736 -15966.92854640106 652617.8135978818 34813.57501849705
         5  588.0102783992144 -15966.91076904242 0.07570939426203153 -15966.83505964815 650771.3386510267 34813.57501849715
         6  585.4848309067204 -15966.83732378181 0.07538422970807543 -15966.7619395521 649393.4667154582 34813.57501849715
         7  582.6872979385713 -15966.77754661966 0.07502403272814638 -15966.70252258693 648330.8982088602 34813.57501849716
         8  579.5699741157219 -15966.72772618108 0.07462266100554821 -15966.65310352007 647500.8692574259 34813.57501849713
         9  576.0972370406508 -15966.68556871601 0.07417552797055994 -15966.61139318804 646852.1353380558 34813.57501849715
        10  572.2428330310344 -15966.64953439364 0.07367925332447105 -15966.57585514032 646350.0649909566 34813.57501849713
        11  567.9881181279525 -15966.61851930419 0.07313143656020137 -15966.54538786763 645969.701030383 34813.57501849715
        12  563.3208274667046 -15966.59169057918 0.07253049851236676 -15966.51916008067 645692.1639109271 34813.57501849716
        13  558.2341569051649 -15966.56839490495 0.07187556311213346 -15966.49651934184 645502.6297884102 34813.57501849713
        14  552.7260415472213 -15966.54810472119 0.07116636449334302 -15966.47693835669 645389.1197324714 34813.57501849715
        15  546.798566353525 -15966.53038490893 0.07040317110556811 -15966.45998173783 645341.7361227738 34813.57501849715
        16  540.4574706094197 -15966.51487114602 0.06958672191177048 -15966.44528442411 645352.1585360377 34813.57501849708
        17  533.7117225584166 -15966.50125517083 0.06871817162013938 -15966.43253699921 645413.2965818302 34813.57501849707
        18  526.5731487353113 -15966.48927428547 0.06779904295879451 -15966.42147524251 645519.0412772768 34813.57501849715
        19  519.0561073356323 -15966.47870355663 0.06683118462039668 -15966.41187237201 645664.0805997333 34813.57501849713
        20  511.1721102898771 -15966.46373373602 0.06581607882611916 -15966.3979176572 645482.0284215041 34802.23544569983
        21  502.9405435649354 -15966.45579602057 0.06475622162044338 -15966.39103979895 645715.9605488048 34802.97555647642
        22  494.3873523786975 -15966.44874593766 0.06365495358567312 -15966.38509098407 645975.4380324469 34803.67483465224
        23  485.5343123896133 -15966.44246031808 0.06251507845155846 -15966.37994523963 646257.2061777893 34804.33370528625
        24  476.4045415424964 -15966.43683332847 0.06133957277422895 -15966.3754937557 646558.3531038117 34804.9531109355
        25  467.0144441103141 -15966.43737413458 0.06013054868950144 -15966.37724358589 647246.0583169359 34817.0045928312
        26  457.3898722513184 -15966.43241575577 0.05889133479776527 -15966.37352442097 647552.6420341914 34816.75570025713
        27  447.5653208446419 -15966.42790709717 0.05762637249486029 -15966.37028072468 647873.2016008003 34816.52674376709
        28  437.5676257726332 -15966.4237890148 0.05633911704079086 -15966.36744989776 648205.9315764297 34816.31571298916
        29  427.4245488222493 -15966.41702352139 0.05503314291061524 -15966.36199037848 648356.0345993416 34810.05625363447
        30  417.1641079112001 -15966.41374653449 0.0537120575575638 -15966.36003447693 648721.9966974511 34810.29173613287
        31  406.8143838464634 -15966.41071517336 0.05237947653218859 -15966.35833569682 649094.0129386795 34810.51280549001
        32  396.4037149128835 -15966.40789857561 0.05103904853666166 -15966.35685952707 649470.0886404862 34810.72001676742
        33  385.9601397333543 -15966.40753171693 0.04969438369011398 -15966.35783733324 649994.8087776884 34815.49262150601
        34  375.5119005861714 -15966.40643172101 0.04834911833337304 -15966.35808260268 650461.9559964142 34818.36407070241
        35  365.0874861280857 -15966.40386393272 0.04700692052977919 -15966.35685701219 650825.7986775603 34818.02960449603
        36  354.7150072264772 -15966.40013677888 0.04567140970031827 -15966.35446536918 651105.2314104963 34815.112673913
        37  344.421908798764 -15966.39794553326 0.04434611952144055 -15966.35359941374 651473.1703149895 34815.00169173301
        38  334.2373610182497 -15966.39480841535 0.04303480580530179 -15966.35177360954 651766.2553010987 34812.6438951647
        39  324.1873958484839 -15966.39144548581 0.04174082030316249 -15966.3497046655 652039.4717408643 34809.73666264849
        40  314.2955629372979 -15966.38661918658 0.0404671951551703 -15966.34615199143 652204.9737992344 34803.66092761345
        41  304.5872725009246 -15966.38521854482 0.0392172020593716 -15966.34600134276 652582.2620063897 34804.34468708199
        42  295.0868050370245 -15966.38269603346 0.03799396725664646 -15966.34470206621 652874.956383294 34802.58526449142
        43  285.817574681159 -15966.38149665157 0.03680050543923012 -15966.34469614614 653240.4705154673 34803.345028178
        44  276.802146192291 -15966.38034774007 0.03563972193768485 -15966.34470801813 653597.0646866162 34804.05236710006
        45  268.0619474228662 -15966.37924819863 0.0345143756999212 -15966.34473382293 653943.6891851665 34804.71055358747
        46  259.617046645256 -15966.37756228879 0.03342705062081476 -15966.34413523817 654239.2943063648 34804.05118666552
        47  251.4863611537346 -15966.37660519772 0.03238018240079998 -15966.34422501532 654566.4755134325 34804.70996344041
        48  243.6869195734864 -15966.3751290726 0.03137596356430238 -15966.34375310904 654846.7884284277 34804.22071655704
        49  236.235038500597 -15966.37430341958 0.03041649495828233 -15966.34388692462 655150.6608809271 34804.86783209725
        50  229.1460284894911 -15966.37399143806 0.02950374789658229 -15966.34448769016 655470.8444612554 34806.42539891503
        51  222.4331419903949 -15966.37322287974 0.02863942870138058 -15966.34458345104 655744.8099319715 34806.92001538728
        52  216.1083387104558 -15966.37250253882 0.0278250772474327 -15966.34467746157 656004.6097405326 34807.38042321084
        53  210.1818594415412 -15966.37183112637 0.02706201209017471 -15966.34476911428 656249.8959163021 34807.80898612144
        54  204.6626096419249 -15966.37085600692 0.02635137985386864 -15966.34450462707 656458.0622660232 34807.49086759085
        55  199.5578406447254 -15966.36932633814 0.02569411418552401 -15966.34363222395 656612.1925648404 34805.90952268156
        56  194.8728877841071 -15966.36889588695 0.02509090203727857 -15966.34380498491 656819.5280633862 34806.4398732049
        57  190.611387336102 -15966.36822280231 0.02454221159866214 -15966.34368059071 656992.9803069021 34806.35526793925
        58  186.7756985961835 -15966.3679024601 0.02404834664128844 -15966.34385411346 657171.1096113109 34806.85478400828
        59  183.3665228992816 -15966.36751440223 0.02360939746569248 -15966.34390500477 657327.2920059835 34807.11222164354
        60  180.3830898711286 -15966.36729117047 0.02322526488216398 -15966.34406590559 657474.5760503868 34807.55936742633
        61  177.8230585428442 -15966.36659681696 0.02289564747873376 -15966.34370116948 657573.1106917493 34806.92760608738
        62  175.682552380947 -15966.36649825918 0.02262004613147064 -15966.34387821305 657692.3977092266 34807.3875277345
        63  173.956552426325 -15966.36644157118 0.02239781462317716 -15966.34404375656 657796.4445211637 34807.81562889079
        64  172.6382212358994 -15966.36624796957 0.02222807259734798 -15966.34401989698 657874.990444603 34807.86403788942
        65  171.7194950788298 -15966.36628659344 0.02210978180652408 -15966.34417681163 657951.0871565905 34808.25917111406
        66  171.191044230544 -15966.36636503021 0.02204174099994177 -15966.34432328921 658013.3256620374 34808.62696599758
        67  171.0421593537291 -15966.36648254837 0.02202257129449186 -15966.34445997708 658061.8410859922 34808.96931395245
        68  171.2609206911498 -15966.36663822516 0.02205073795917867 -15966.3445874872 658097.2177707358 34809.28797489472
        69  171.834273470451 -15966.36683096128 0.02212456012388219 -15966.34470640116 658119.6051000224 34809.58458905958
        70  172.7481106622876 -15966.36705649048 0.02224222143489943 -15966.34481426905 658129.6997702144 34809.86068100479
        71  173.9874597790103 -15966.36736431266 0.02240179410625085 -15966.34496251855 658130.4624248397 34810.20545421348
        72  175.536355138175 -15966.36765712581 0.02260122247294008 -15966.34505590334 658117.3198627483 34810.43858932497
        73  177.3778419105095 -15966.36785559179 0.02283832351215072 -15966.34501726828 658084.9968988277 34810.39592034503
        74  179.4943736701378 -15966.36813563494 0.02311083802991399 -15966.34502479691 658046.3006912847 34810.4449644572
        75  181.8679090520152 -15966.36853050328 0.0234164431062583 -15966.34511406018 658003.9866070092 34810.66152849029
        76  184.4798190523764 -15966.36894992081 0.02375274015965783 -15966.34519718065 657952.6153195264 34810.86310877354
        77  187.3109822270428 -15966.36939183745 0.0241172672043117 -15966.34527457025 657893.0591017274 34811.05074200835
        78  190.341839105931 -15966.36991734581 0.0245075058562962 -15966.34540983995 657830.2138686278 34811.35369185024
        79  193.5526732139147 -15966.37039345276 0.02492091751646835 -15966.34547253524 657756.3704144256 34811.50738234552
        80  196.9236933452414 -15966.3708858455 0.02535495396372683 -15966.34553089154 657676.6717854429 34811.65043921205
        81  200.4349669295261 -15966.37134129722 0.02580704877553552 -15966.34553424844 657588.5833780856 34811.68012985327
        82  204.0664668799362 -15966.37186293572 0.02627462335987209 -15966.34558831236 657499.1197059093 34811.81123456401
        83  207.7981327387202 -15966.37239371549 0.02675509482803413 -15966.34563862066 657405.1560797489 34811.93326832321
        84  211.6101331608021 -15966.37297147341 0.02724590979077274 -15966.34572556362 657310.1350978456 34812.13030222838
        85  215.4828478049461 -15966.3735108819 0.02774454202668542 -15966.34576633987 657209.4905300362 34812.2302601405
        86  219.3968512649168 -15966.37398241624 0.02824849041326906 -15966.34573392582 657101.8740681789 34812.17870958022
        87  223.3331720998445 -15966.37452939517 0.02875531227843221 -15966.34577408289 656997.5931785922 34812.27531825595
        88  227.2733534376553 -15966.37507407156 0.02926263120350326 -15966.34581144035 656892.2369226178 34812.36524271184
        89  231.1994240176919 -15966.37558526636 0.0297681332948166 -15966.34581713306 656784.7110254474 34812.39064107677
        90  235.0940004142179 -15966.37612105078 0.03026958034552276 -15966.34585147043 656679.0520929628 34812.47258650888
        91  238.9402888143065 -15966.37662358545 0.03076481006450071 -15966.34585877538 656572.2833414478 34812.49834679202
        92  242.7221744794215 -15966.37714193642 0.03125174759500374 -15966.34589018883 656468.1692381649 34812.57284021343
        93  246.4242854814409 -15966.3776478221 0.03172841372100538 -15966.34591940838 656365.5573294929 34812.64217953847
        94  250.0320186521867 -15966.37813951453 0.03219292820833676 -15966.34594658632 656264.8139913811 34812.70672137194
        95  253.5315990265139 -15966.37861538066 0.03264351745829495 -15966.3459718632 656166.5193371673 34812.76679764552
        96  256.9101536825347 -15966.37907389569 0.03307852401495728 -15966.34599537167 656071.4755138236 34812.82271732517
        97  260.1557329398016 -15966.37949089499 0.03349640929455824 -15966.3459944857 655978.5104931467 34812.82830476917
        98  263.2572241388062 -15966.37991213502 0.03389574248414959 -15966.34601639253 655890.8946934748 34812.87996885629
        99  266.204467828485 -15966.38029781855 0.0342752155013486 -15966.34602260305 655807.0877666629 34812.89959294482
       100  268.9882968462555 -15966.38069473808 0.03463364802609672 -15966.34606109005 655729.6803634592 34812.9837956312
Loop time of 6.32294 on 1 procs for 100 steps with 256 atoms

Performance: 1.366 ns/day, 17.564 hours/ns, 15.815 timesteps/s, 4.049 katom-step/s
99.6% CPU use with 1 MPI tasks x 1 OpenMP threads

MPI task timing breakdown:
Section |  min time  |  avg time  |  max time  |%varavg| %total
---------------------------------------------------------------
Pair    | 6.3185     | 6.3185     | 6.3185     |   0.0 | 99.93
Neigh   | 0          | 0          | 0          |   0.0 |  0.00
Comm    | 0.00028433 | 0.00028433 | 0.00028433 |   0.0 |  0.00
Output  | 0.0011307  | 0.0011307  | 0.0011307  |   0.0 |  0.02
Modify  | 0.0029067  | 0.0029067  | 0.0029067  |   0.0 |  0.05
Other   |            | 0.0001325  |            |       |  0.00

Nlocal:            256 ave         256 max         256 min
Histogram: 1 0 0 0 0 0 0 0 0 0
Nghost:            843 ave         843 max         843 min
Histogram: 1 0 0 0 0 0 0 0 0 0
Neighs:           5376 ave        5376 max        5376 min
Histogram: 1 0 0 0 0 0 0 0 0 0
FullNghs:        10752 ave       10752 max       10752 min
Histogram: 1 0 0 0 0 0 0 0 0 0

Total # of neighbors = 10752
Ave neighs/atom = 42
Neighbor list builds = 0
Dangerous builds = 0
Total wall time: 0:00:06
