54
Lattice="9.96000003815 0.0 0.0 0.0 9.96000003815 0.0 0.0 0.0 9.96000003815" Properties=species:S:1:pos:R:3:forces:R:3 energy=-632.431277 stress="39332.07 -484.03000000000003 -591.5 -484.03000000000003 42463.85 -935.67 -591.5 -935.67 44557.78"
Ta 0.01093 0.07201 0.09451 -0.133033 -0.624676 -1.390718
Ta 1.86279 1.76064 1.51659 -1.592195 -0.069139 1.205785
Ta 3.2078 9.79995 0.13153 0.540433 1.454104 -1.58264
Ta 9.85766 3.40762 9.89988 1.024661 -1.342485 0.791698
Ta 3.38902 3.43935 0.04627 -0.448466 -0.286011 -0.80136
Ta 9.90188 0.13348 3.29636 1.537302 -1.039386 0.836358
Ta 3.22408 9.86832 3.24936 1.3552 0.851114 0.539138
Ta 0.12559 3.29783 3.20677 -1.020326 -0.682337 1.223972
Ta 3.36531 3.39767 3.43601 0.009962 -0.529326 -1.103499
Ta 5.15746 1.68746 1.60975 -2.532105 1.453447 0.682011
Ta 6.67484 0.22558 0.19511 -0.045042 -2.082264 -2.946332
Ta 8.39432 1.57083 1.68829 -0.326523 2.974804 -0.552053
Ta 6.7901 3.4905 9.84778 -2.280421 -1.914956 1.902637
Ta 6.66098 0.16369 3.1821 -0.458515 -1.404543 2.285847
Ta 6.68975 3.33374 3.35351 -0.189956 -0.055081 0.175264
Ta 1.51952 4.8757 1.72333 1.250032 1.568243 -1.070974
Ta 9.93504 6.80931 0.00911 -0.545334 -1.102829 0.05256
Ta 1.53614 8.31731 1.75831 0.412055 0.075595 -1.050824
Ta 3.19933 6.67436 9.9199 -0.185239 -1.027413 0.207555
Ta 9.87719 6.84896 3.30936 0.023055 -2.415004 0.073182
Ta 3.27549 6.6063 3.18917 0.469425 0.419811 0.76263
Ta 5.00755 4.96297 1.63652 -0.168999 0.238458 0.154223
Ta 8.27314 4.95228 1.66284 0.330644 1.338439 0.511823
Ta 4.91774 8.42919 1.48115 0.474143 -1.326573 1.888404
Ta 6.55832 6.62377 9.94221 1.26809 -0.236095 1.051695
Ta 8.27021 8.49129 1.78853 -0.55743 -1.432265 -0.989698
Ta 6.39844 6.56795 3.35477 1.561076 0.83826 -0.364502
Ta 1.77582 1.5455 4.9351 -1.060253 0.494227 0.023332
Ta 9.87126 0.15154 6.74741 0.212135 -1.347122 -0.696834
Ta 1.74456 1.52234 8.31732 0.085858 1.095537 0.038296
Ta 3.45815 9.88882 6.55866 -1.684608 0.594275 1.383549
Ta 0.03304 3.29479 6.73355 -0.261879 -0.877624 -1.394156
Ta 3.18079 3.30298 6.42253 1.207944 0.171277 1.336295
Ta 4.9603 1.57723 4.99617 0.634253 0.567922 -0.173103
Ta 8.3559 1.62409 5.03154 -0.530634 1.162549 -0.066204
Ta 4.7903 1.73365 8.2792 1.03526 -0.144088 0.183756
Ta 6.74404 9.77079 6.64995 -1.450453 2.324287 -0.166798
Ta 8.09234 1.79785 8.24264 1.673615 -1.361805 0.313033
Ta 6.57421 3.42967 6.77064 0.019605 -0.880931 -1.798564
Ta 1.57913 5.11576 4.95243 0.306594 -0.25138 -0.080154
Ta 1.69273 8.20716 4.92075 -0.341052 1.046973 0.557303
Ta 1.43354 4.91751 8.16401 2.287861 1.338427 1.255018
Ta 0.01425 6.67723 6.65523 -1.147897 -0.077148 -0.417608
Ta 1.58291 8.27957 8.26309 0.342823 0.685693 0.016051
Ta 3.42748 6.83665 6.641 -1.510001 -2.239526 0.838695
Ta 4.97343 5.04097 5.00585 -0.037888 -0.412025 0.456637
Ta 8.4039 4.8646 4.9179 -0.583261 0.965744 0.28682
Ta 4.91928 8.3318 5.11892 1.250045 -0.399127 -2.452135
Ta 8.20159 8.28199 4.88507 0.813012 0.601139 0.388164
Ta 5.04212 4.99253 8.32778 -1.424968 0.603147 -0.546645
Ta 8.29629 4.88656 8.35075 0.628928 2.792969 -1.330955
Ta 5.08862 8.21773 8.50315 -0.984696 1.400694 -1.476016
Ta 6.79769 6.74824 6.68609 -1.854116 -2.150746 -0.908504
Ta 8.1091 8.29833 8.26479 2.601277 0.654768 1.938542
