54
Lattice="9.96000003815 0.0 0.0 0.0 9.96000003815 0.0 0.0 0.0 9.96000003815" Properties=species:S:1:pos:R:3:forces:R:3 energy=-623.378198 stress="80008.25 -785.4100000000001 1601.25 -785.4100000000001 86520.39 4960.87 1601.25 4960.87 85233.93000000001"
Ta 9.95615 9.94979 0.16514 -0.137356 -0.028883 -3.40463
Ta 1.87163 1.71307 1.41378 -1.76357 0.590114 2.267852
Ta 3.17989 9.83685 0.10642 1.277421 0.225697 -1.841016
Ta 9.90024 3.33884 9.82529 0.735381 -0.941566 1.77777
Ta 3.4188 3.54303 0.14009 -1.606974 -1.518343 -1.948061
Ta 9.8553 0.24533 3.33787 2.112303 -3.154318 -0.288821
Ta 3.17514 9.74142 3.2 1.589191 1.94113 1.194543
Ta 0.11128 3.26365 3.15053 -0.364264 -0.441607 0.999143
Ta 3.37385 3.56077 3.43718 -0.10161 -1.946969 -0.790652
Ta 5.20458 1.63365 1.50672 -4.374578 3.807338 1.826632
Ta 6.57608 0.24353 0.2053 1.355941 -3.643228 -5.429459
Ta 8.39734 1.42414 1.60164 -0.6903 5.287807 -0.169411
Ta 6.79744 3.4915 9.76717 -3.482997 -2.71942 3.817554
Ta 6.57033 0.23978 3.13517 0.116586 -1.988113 3.629484
Ta 6.72113 3.22949 3.3633 -0.338679 0.658098 0.181119
Ta 1.57149 4.94775 1.80091 0.075728 0.493399 -1.98724
Ta 9.92064 6.87072 0.13795 -0.725063 -1.775537 -0.966934
Ta 1.41785 8.41983 1.76001 1.411759 -1.132459 -0.69594
Ta 3.14851 6.64163 0.03349 0.008652 -0.525052 -0.43074
Ta 9.7788 6.83849 3.18243 0.240296 -2.124804 1.273631
Ta 3.16533 6.57739 3.14068 1.48579 1.371308 1.35272
Ta 4.90709 4.92946 1.61468 1.153866 1.203555 0.949633
Ta 8.33316 4.92031 1.59073 -0.391861 0.974553 0.849438
Ta 4.9596 8.47655 1.51542 -0.546245 -2.139501 1.15131
Ta 6.44823 6.51342 9.85247 2.586298 -0.265344 3.052647
Ta 8.17315 8.54045 1.75264 -0.705353 -2.252394 -0.493293
Ta 6.39303 6.44322 3.27828 1.523627 1.285888 -0.061445
Ta 1.70938 1.43709 4.84222 0.306581 1.628448 1.044131
Ta 9.71238 0.24769 6.81385 1.995125 -2.589965 -0.973181
Ta 1.68921 1.55889 8.35846 0.351955 0.61258 -0.208928
Ta 3.47749 9.92814 6.63177 -2.081328 0.048903 1.244886
Ta 0.07656 3.32278 6.77536 -1.946033 -1.979053 -2.885009
Ta 3.07793 3.27871 6.40803 1.81774 -0.328617 1.303887
Ta 4.90115 1.58004 5.10411 0.818241 0.705137 -0.829745
Ta 8.43888 1.56841 5.00344 -2.225694 2.689319 0.426868
Ta 4.81957 1.88977 8.30861 0.398342 -1.185455 -0.079158
Ta 6.73863 9.78981 6.71678 -2.05864 2.854477 -1.371358
Ta 8.05528 1.82891 8.19103 1.951662 -1.704639 1.321716
Ta 6.59394 3.44619 6.83462 -0.445378 -0.730496 -3.696673
Ta 1.65312 5.15331 5.0431 -0.703206 0.151193 -0.646398
Ta 1.60774 8.12544 4.90328 -0.101304 1.629949 1.006095
Ta 1.42058 4.79056 8.10344 3.354131 3.342928 2.609888
Ta 9.92554 6.78882 6.73898 -1.110388 -1.85868 -1.874234
Ta 1.4639 8.19238 8.28284 1.738894 1.866439 0.339074
Ta 3.56301 6.81221 6.61544 -3.063945 -1.111905 1.132298
Ta 4.934 5.10947 5.11506 0.832308 -0.890416 -0.494106
Ta 8.45728 4.85519 4.78408 -1.053171 0.965832 0.968872
Ta 4.91173 8.4049 5.06479 1.33012 -0.900003 -2.085329
Ta 8.16172 8.38305 4.77586 0.217903 -0.195045 1.235079
Ta 4.96219 4.997 8.25034 -1.340837 0.253721 -0.064669
Ta 8.22081 4.83811 8.40873 2.589217 4.367823 -2.571794
Ta 5.19313 8.07977 8.4862 -3.823089 3.630743 -0.94626
Ta 6.77011 6.85567 6.82197 -2.081899 -4.511915 -4.402203
Ta 8.12043 8.25909 8.1457 3.888707 1.997353 4.680418
