128
Lattice="1.3263999999999999e+01 0 0 0 1.3263999999999999e+01 0 0 0 1.3263999999999999e+01" Properties=species:S:1:pos:R:3:velo:R:3
Ta 0 0 0 0.023985802249561327 0.24490560855866794 1.2043500098900755
Ta 1.6579999999999999 1.6579999999999999 1.6579999999999999 -1.5426709411097486 0.80218185530042929 -0.18064384684358212
Ta 3.3159999999999998 0 0 -1.4936838111112223 0.8841705370610452 1.5708202899526456
Ta 4.9740000000000002 1.6579999999999999 1.6579999999999999 -0.24071078112255562 0.33707820526000609 -0.51079218472783594
Ta 6.6319999999999997 0 0 0.57135081046362357 -1.406212525950056 0.029350836623885566
Ta 8.2899999999999991 1.6579999999999999 1.6579999999999999 1.1031300390952208 1.0917705486834066 -1.8490791756145732
Ta 9.9480000000000004 0 0 1.2057331959198434 0.055387605981026586 0.85126142411992589
Ta 11.606 1.6579999999999999 1.6579999999999999 1.6634100807303485 0.29793896757882615 -1.3913163461168145
Ta 0 3.3159999999999998 0 1.3888166558725332 0.36595837141407433 -1.5846199808007846
Ta 1.6579999999999999 4.9740000000000002 1.6579999999999999 -1.9479526918765846 -0.28927841786339203 -0.13305411472928161
Ta 3.3159999999999998 3.3159999999999998 0 -0.5579805602864234 -1.7145240864872597 -1.1423264883222823
Ta 4.9740000000000002 4.9740000000000002 1.6579999999999999 1.612298937855176 1.937879740909459 -0.97315712860534409
Ta 6.6319999999999997 3.3159999999999998 0 -1.7331365656657385 1.1536168451520923 -1.8487597843240089
Ta 8.2899999999999991 4.9740000000000002 1.6579999999999999 0.22506513101086803 -0.5074690840965268 -0.082621952308559524
Ta 9.9480000000000004 3.3159999999999998 0 0.98213201055629695 0.64285865506697648 -0.30147748850097228
Ta 11.606 4.9740000000000002 1.6579999999999999 1.0927211616606625 0.77743224618901874 -0.36717003915534308
Ta 0 6.6319999999999997 0 -0.42486120012699474 -1.2746671771997753 -1.0383927590443995
Ta 1.6579999999999999 8.2899999999999991 1.6579999999999999 -0.61948555624893431 -0.13640741192674682 -0.35140994229483796
Ta 3.3159999999999998 6.6319999999999997 0 -1.1466908605130917 -0.600871388767521 1.7538261034593425
Ta 4.9740000000000002 8.2899999999999991 1.6579999999999999 -1.1054362470187897 -1.5874398091210746 1.8109324507154274
Ta 6.6319999999999997 6.6319999999999997 0 -0.4719668810752593 1.1602475387617335 1.4904676356921309
Ta 8.2899999999999991 8.2899999999999991 1.6579999999999999 0.43579289807179555 -1.2528013908586024 0.57334263106280414
Ta 9.9480000000000004 6.6319999999999997 0 -1.4757284228505014 -0.85913148951521279 1.9211220916487768
Ta 11.606 8.2899999999999991 1.6579999999999999 -0.33332465800353345 -1.2065740378955163 0.0075756339307835449
Ta 0 9.9480000000000004 0 -0.39551598008716354 1.3098641433061593 0.62680764771032316
Ta 1.6579999999999999 11.606 1.6579999999999999 1.0057973516386196 -0.76270175177363486 1.0731231560034562
Ta 3.3159999999999998 9.9480000000000004 0 0.48877237079919267 -0.59633312786345616 -0.96985216912305383
Ta 4.9740000000000002 11.606 1.6579999999999999 -0.92194085857510111 1.4886115630983059 -1.2558223607735053
Ta 6.6319999999999997 9.9480000000000004 0 -1.3921501322398611 -1.4957222003800874 0.76441068934751155
Ta 8.2899999999999991 11.606 1.6579999999999999 -0.45791114538892491 0.40030935738079237 1.9757884442576841
Ta 9.9480000000000004 9.9480000000000004 0 -0.93087904990181136 0.94528542662244308 1.7517884147508846
Ta 11.606 11.606 1.6579999999999999 -1.1438615687659788 1.2152180492122451 -1.8099069618145982
Ta 0 0 3.3159999999999998 1.6494529868535706 -1.4420514992574516 0.56494996681358911
Ta 1.6579999999999999 1.6579999999999999 4.9740000000000002 -0.96420203944093597 -1.9687932056035151 -0.42342688348828644
Ta 3.3159999999999998 0 3.3159999999999998 -1.6774694172805387 1.2460329330847528 0.5284551458997564
Ta 4.9740000000000002 1.6579999999999999 4.9740000000000002 -0.4917640277782509 1.0537262161142555 -0.95873928485361137
Ta 6.6319999999999997 0 3.3159999999999998 1.0341401708526936 1.605685055955824 -0.24175700163499209
Ta 8.2899999999999991 1.6579999999999999 4.9740000000000002 1.6506888226658747 -1.4603667090173251 0.41853359856630235
Ta 9.9480000000000004 0 3.3159999999999998 2.0768183072956874 0.763627118937664 0.44694256750294209
Ta 11.606 1.6579999999999999 4.9740000000000002 -0.22028352762450429 -1.4396001918189334 0.18605867167891341
Ta 0 3.3159999999999998 3.3159999999999998 1.7864392693567472 1.6221461199314786 2.0044435027083751
Ta 1.6579999999999999 4.9740000000000002 4.9740000000000002 0.32902456237758354 0.46204649499686784 0.14147499972682559
Ta 3.3159999999999998 3.3159999999999998 3.3159999999999998 0.57753475046197666 -1.4177715094197862 1.1741881081557204
Ta 4.9740000000000002 4.9740000000000002 4.9740000000000002 -0.30574843674508101 0.75100555399982671 0.36417927028389058
Ta 6.6319999999999997 3.3159999999999998 3.3159999999999998 -0.31499434451522423 -0.80630930582696425 -0.065966526329765407
Ta 8.2899999999999991 4.9740000000000002 4.9740000000000002 0.97898027230986828 1.7230139859496068 0.90763876526647425
Ta 9.9480000000000004 3.3159999999999998 3.3159999999999998 0.8363579680029487 -0.43636663580858165 1.6471840323017211
Ta 11.606 4.9740000000000002 4.9740000000000002 1.7727938900261095 0.96334048864852828 1.68370336265002
Ta 0 6.6319999999999997 3.3159999999999998 0.19090156215895446 -0.9179580606357739 -1.3780934123202297
Ta 1.6579999999999999 8.2899999999999991 4.9740000000000002 -1.994219522473667 -0.38701201531098839 -0.41001755097981452
Ta 3.3159999999999998 6.6319999999999997 3.3159999999999998 0.68222066903671652 -0.71159004935769621 -0.55741341566785763
Ta 4.9740000000000002 8.2899999999999991 4.9740000000000002 0.62451790553531039 -1.7541770639092529 1.8161301507419203
Ta 6.6319999999999997 6.6319999999999997 3.3159999999999998 0.37124839534936233 -0.8660563331248633 1.9537187043391289
Ta 8.2899999999999991 8.2899999999999991 4.9740000000000002 1.964556468122328 1.6207959422539988 0.10101498445998668
Ta 9.9480000000000004 6.6319999999999997 3.3159999999999998 0.61151547726770406 0.077492738305146136 -1.8299183332498692
Ta 11.606 8.2899999999999991 4.9740000000000002 1.3906308845218762 1.7530884909012932 -0.8819445663939558
Ta 0 9.9480000000000004 3.3159999999999998 -1.3590660782247128 1.5603686218073951 -0.99738365228985548
Ta 1.6579999999999999 11.606 4.9740000000000002 -1.2190155530002635 -2.0839279226199432 -2.1148990128734608
Ta 3.3159999999999998 9.9480000000000004 3.3159999999999998 -0.021833262141697757 -0.64282445047546088 -0.68282151993605444
Ta 4.9740000000000002 11.606 4.9740000000000002 -0.55680866894778291 1.3502474763183601 1.6278343304074345
Ta 6.6319999999999997 9.9480000000000004 3.3159999999999998 -0.13013203670199247 0.29674666171478775 -0.64139329585014704
Ta 8.2899999999999991 11.606 4.9740000000000002 -0.12625901168524983 -1.1341465447975214 -0.93939950754745005
Ta 9.9480000000000004 9.9480000000000004 3.3159999999999998 1.4562451343192544 -1.4434251853916253 -1.7335851830868687
Ta 11.606 11.606 4.9740000000000002 -1.9425350052032082 -0.70585240991686182 0.24565721350812897
Ta 0 0 6.6319999999999997 2.0370352763361361 1.5362739522587554 1.5080563040324177
Ta 1.6579999999999999 1.6579999999999999 8.2899999999999991 -1.5486124741080216 0.73007374768461675 1.9764415522441063
Ta 3.3159999999999998 0 6.6319999999999997 0.7782727612919631 0.40892640909405958 1.2795226390294798
Ta 4.9740000000000002 1.6579999999999999 8.2899999999999991 -1.0777956805083393 1.4515904331057536 0.20027706915742946
Ta 6.6319999999999997 0 6.6319999999999997 0.40611066411145236 -1.1859225905461344 1.998923296162622
Ta 8.2899999999999991 1.6579999999999999 8.2899999999999991 1.5752318577553346 -1.5361058238113707 -0.24149706687519773
Ta 9.9480000000000004 0 6.6319999999999997 -0.20876442256710484 0.90312760203594311 0.031492632829039031
Ta 11.606 1.6579999999999999 8.2899999999999991 -0.066566840679848013 0.082000057960123399 -0.91582463781781942
Ta 0 3.3159999999999998 6.6319999999999997 0.054904034656895258 0.16244499966066156 -0.16319044215920014
Ta 1.6579999999999999 4.9740000000000002 8.2899999999999991 0.39295831183263824 -1.8740256446962595 -0.10302108355875418
Ta 3.3159999999999998 3.3159999999999998 6.6319999999999997 1.1366318609610606 -1.3041189868513967 -1.2565741434836462
Ta 4.9740000000000002 4.9740000000000002 8.2899999999999991 -1.736154488479422 0.32500661274775877 0.33422799208518778
Ta 6.6319999999999997 3.3159999999999998 6.6319999999999997 0.67939934058085549 1.7639610901660876 -1.0894365459897484
Ta 8.2899999999999991 4.9740000000000002 8.2899999999999991 -1.9298487077879285 0.46486963566780598 1.8541833004344266
Ta 9.9480000000000004 3.3159999999999998 6.6319999999999997 1.4654249175364851 -0.99746568636315047 1.1493373286526052
Ta 11.606 4.9740000000000002 8.2899999999999991 -0.7244270261914445 -0.9798391686718585 -1.9634908168791365
Ta 0 6.6319999999999997 6.6319999999999997 0.30408077519511945 1.1697710039216187 -0.60291353795006719
Ta 1.6579999999999999 8.2899999999999991 8.2899999999999991 -0.71082696385449617 -1.0826762503232146 -0.70088089565358358
Ta 3.3159999999999998 6.6319999999999997 6.6319999999999997 0.62723754084511807 -1.7810833677247675 -1.3555516019908702
Ta 4.9740000000000002 8.2899999999999991 8.2899999999999991 0.5680076782970821 0.61498673103448487 1.0866694791933125
Ta 6.6319999999999997 6.6319999999999997 6.6319999999999997 0.57825346218308915 -1.8117882369764342 -1.8448979772283733
Ta 8.2899999999999991 8.2899999999999991 8.2899999999999991 0.13810697409195904 1.5329301637450869 -0.63957720658254658
Ta 9.9480000000000004 6.6319999999999997 6.6319999999999997 -1.5345407247134581 0.23927796050514805 -1.9078969141227609
Ta 11.606 8.2899999999999991 8.2899999999999991 -1.6531169291591556 -1.0840518125646637 1.1268537609022493
Ta 0 9.9480000000000004 6.6319999999999997 -1.6981761875290773 -1.6751266952833275 -0.080817611460924269
Ta 1.6579999999999999 11.606 8.2899999999999991 0.5021946095317068 0.4699500121932062 -0.073760807228404529
Ta 3.3159999999999998 9.9480000000000004 6.6319999999999997 0.27934662025117152 1.2429830041520111 -0.83808192951564342
Ta 4.9740000000000002 11.606 8.2899999999999991 -1.7148469766773549 0.86942490697112662 -0.94869368684141886
Ta 6.6319999999999997 9.9480000000000004 6.6319999999999997 1.1291273466704068 1.4593571145108855 1.8430436608229444
Ta 8.2899999999999991 11.606 8.2899999999999991 1.7201070280775828 1.0669800446928748 1.4348759401207847
Ta 9.9480000000000004 9.9480000000000004 6.6319999999999997 1.7632340876305774 -1.7117997986637452 -1.0910379942577173
Ta 11.606 11.606 8.2899999999999991 0.16158426688200414 1.1246436500212751 1.8193315409708821
Ta 0 0 9.9480000000000004 0.88226019873890205 1.8491401785059514 0.23177092961213297
Ta 1.6579999999999999 1.6579999999999999 11.606 0.093002636871995906 0.18421504838310654 -0.16051721001045194
Ta 3.3159999999999998 0 9.9480000000000004 0.49163285742805929 1.744048687745873 1.0247408334256187
Ta 4.9740000000000002 1.6579999999999999 11.606 -1.2099575308877117 0.47339423149798132 -0.39598853191297589
Ta 6.6319999999999997 0 9.9480000000000004 -1.2369120597599985 0.6489954910262169 -1.1047140573325223
Ta 8.2899999999999991 1.6579999999999999 11.606 -0.40411925625526712 -1.9201460053330934 -1.8968356005379257
Ta 9.9480000000000004 0 9.9480000000000004 -1.2613704385512461 1.1993757482622731 -1.9721603763625846
Ta 11.606 1.6579999999999999 11.606 1.5885595902460325 -2.0581890899646287 -1.9336988838866891
Ta 0 3.3159999999999998 9.9480000000000004 -1.0148897067623748 -1.5271018835404291 1.4068715753058738
Ta 1.6579999999999999 4.9740000000000002 11.606 -0.32499981435467495 1.5016223012239367 1.2099731622561924
Ta 3.3159999999999998 3.3159999999999998 9.9480000000000004 0.57260509756832545 -1.114416864383605 -1.9667841053865507
Ta 4.9740000000000002 4.9740000000000002 11.606 -1.5957932264530779 1.9032634977692215 -0.6761397861406645
Ta 6.6319999999999997 3.3159999999999998 9.9480000000000004 0.070686991371475424 -0.67270015001204075 0.29028288199572511
Ta 8.2899999999999991 4.9740000000000002 11.606 0.77318755219302404 -1.9021520881407132 1.1652196687134673
Ta 9.9480000000000004 3.3159999999999998 9.9480000000000004 -1.0043436430975832 1.0929253904857561 0.92914083074827569
Ta 11.606 4.9740000000000002 11.606 1.6554776048791948 0.026466663051597426 1.2397539567087492
Ta 0 6.6319999999999997 9.9480000000000004 -1.3124021866575466 0.015902860589224899 -1.6784092882609596
Ta 1.6579999999999999 8.2899999999999991 11.606 1.3005557118620852 1.299422678914377 -0.23521964484632693
Ta 3.3159999999999998 6.6319999999999997 9.9480000000000004 -0.25727262245608945 0.55491418847562768 1.793221260372464
Ta 4.9740000000000002 8.2899999999999991 11.606 1.7442087954686067 -1.3191664746637839 -0.53380777894058884
Ta 6.6319999999999997 6.6319999999999997 9.9480000000000004 -0.94498604842852452 0.84364904975500177 -1.7521656093615898
Ta 8.2899999999999991 8.2899999999999991 11.606 -1.3573636802835427 1.0679600290376898 1.2742666577014383
Ta 9.9480000000000004 6.6319999999999997 9.9480000000000004 0.27380373971955602 -0.44457617920929093 0.87683896382500304
Ta 11.606 8.2899999999999991 11.606 -1.242951889937183 -1.0751933025536535 0.33097602440488272
Ta 0 9.9480000000000004 9.9480000000000004 -1.2314485798056365 1.0020691724890349 -0.17814933472617031
Ta 1.6579999999999999 11.606 11.606 -1.6061225213144243 -1.2313320381822941 -0.31998104278058792
Ta 3.3159999999999998 9.9480000000000004 9.9480000000000004 1.879207424599048 1.6009532404136704 -0.77115153141278781
Ta 4.9740000000000002 11.606 11.606 -0.56784037914743901 -1.1164380263101208 1.4837612685501327
Ta 6.6319999999999997 9.9480000000000004 9.9480000000000004 -1.6538870295689159 -1.5537247751174907 -1.1593022271881968
Ta 8.2899999999999991 11.606 11.606 1.9006721150810126 0.62927206623934551 0.027808864247959003
Ta 9.9480000000000004 9.9480000000000004 9.9480000000000004 0.76530439724664878 -1.3446879460607242 -1.2196187798604714
Ta 11.606 11.606 11.606 0.41906880927730472 0.39594305748794206 -0.72598765053632974
