ITEM: TIMESTEP
0
ITEM: NUMBER OF ATOMS
128
ITEM: BOX BOUNDS pp pp pp
0.0000000000000000e+00 1.2721200000000000e+01
0.0000000000000000e+00 1.2721200000000000e+01
0.0000000000000000e+00 1.2721200000000000e+01
ITEM: ATOMS id type x y z vx vy vz
1 1 0 0 0 -0.0026883065865651715 0.4016885641399543 1.2887476504742019
2 1 1.59015 1.59015 1.59015 1.957457426145744 -1.5596863887638559 -1.2017159783090983
3 1 3.1802999999999999 0 0 0.89428256985996868 -1.3890090838931264 -1.3849298243784527
4 1 4.7704500000000003 1.59015 1.59015 1.4612882644738892 -1.8312260543443364 1.5406934849728755
5 1 6.3605999999999998 0 0 -1.3985106468684767 1.4104723962623293 -1.3507254778513289
6 1 7.9507499999999993 1.59015 1.59015 -1.7674196910117546 0.58796905771262808 -0.026227343803382337
7 1 9.5409000000000006 0 0 0.1397859202714771 0.28353915005805053 0.99048816479362212
8 1 11.13105 1.59015 1.59015 1.0123133670831017 0.96757306660439035 -1.7896809356364403
9 1 0 3.1802999999999999 0 0.26589080174793889 0.57610420009023389 -0.89499510450081843
10 1 1.59015 4.7704500000000003 1.59015 -0.48092862798116626 1.6183678849439849 -0.0030203816175886108
11 1 3.1802999999999999 3.1802999999999999 0 1.9245997034232982 1.3130886099380463 -1.1058733167959121
12 1 4.7704500000000003 4.7704500000000003 1.59015 1.4728490477618428 2.0307967877679767 -1.1390862391415917
13 1 6.3605999999999998 3.1802999999999999 0 0.38552768701265078 1.562794594137709 1.9693255891976136
14 1 7.9507499999999993 4.7704500000000003 1.59015 -1.0516736857654607 -0.0081487963611374028 1.4097870169782474
15 1 9.5409000000000006 3.1802999999999999 0 0.5073850260614351 -0.65051036472743784 -0.4563085922257184
16 1 11.13105 4.7704500000000003 1.59015 1.0824570689645552 0.76515342541396125 -0.246973870814653
17 1 0 6.3605999999999998 0 -0.86261549427062489 0.79056687513834301 1.4256735778198943
18 1 1.59015 7.9507499999999993 1.59015 1.1285232560880629 1.083564265563874 -1.297297120837837
19 1 3.1802999999999999 6.3605999999999998 0 -1.8724336549862346 -1.7981720324755164 1.9671182393820483
20 1 4.7704500000000003 7.9507499999999993 1.59015 0.86274818757699168 -0.58634858012917379 0.10109324254919992
21 1 6.3605999999999998 6.3605999999999998 0 0.66766967068047356 -1.2707680231649554 0.45363484511280155
22 1 7.9507499999999993 7.9507499999999993 1.59015 1.4832361192511552 -1.6780059393388123 -0.30754329254238688
23 1 9.5409000000000006 6.3605999999999998 0 0.76089163094645351 1.4710610371438737 -0.068406937264568507
24 1 11.13105 7.9507499999999993 1.59015 -0.72891948478143487 -0.99409829070844935 -1.1579810466178422
25 1 0 9.5409000000000006 0 -0.028729599612409704 0.33262737836097889 -0.57456562488958574
26 1 1.59015 11.13105 1.59015 1.9912571704279747 -0.75565366270123902 -0.9642499988215949
27 1 3.1802999999999999 9.5409000000000006 0 -1.1578053531582853 -0.91995018775190607 1.1109088183206981
28 1 4.7704500000000003 11.13105 1.59015 -1.0917995335827437 -1.7851821713261882 1.48423922634518
29 1 6.3605999999999998 9.5409000000000006 0 -0.78393372198874345 -1.7814871125884297 -1.2435679310475563
30 1 7.9507499999999993 11.13105 1.59015 -0.0073282812667856455 -0.59595789287947676 0.67402225546144023
31 1 9.5409000000000006 9.5409000000000006 0 0.064755941932844591 -0.59936542092510836 0.13052533506995154
32 1 11.13105 11.13105 1.59015 -0.58623460195968646 -1.6236691329630366 1.2500141743119093
33 1 0 0 3.1802999999999999 1.1246700685830371 1.1537012314960737 -1.6129278611430669
34 1 1.59015 1.59015 4.7704500000000003 1.0084890479320221 1.5229004573143077 0.034742678222922568
35 1 3.1802999999999999 0 3.1802999999999999 1.9259417214990882 -0.44311085134796646 0.6593720205573701
36 1 4.7704500000000003 1.59015 4.7704500000000003 -0.058440203823205368 -0.62780374017286933 0.29380653935729678
37 1 6.3605999999999998 0 3.1802999999999999 -0.39192225306372758 -1.6604866447762117 -1.6506429221563856
38 1 7.9507499999999993 1.59015 4.7704500000000003 1.2689320616568278 -1.3327910759494823 -0.62534728781639692
39 1 9.5409000000000006 0 3.1802999999999999 -1.6231178577226968 -1.2289287517472078 -1.3871510083620657
40 1 11.13105 1.59015 4.7704500000000003 -1.6222453938013581 1.2788237436427639 -1.6233792958539361
41 1 0 3.1802999999999999 3.1802999999999999 -0.48941648442711211 0.78003195427995253 -1.4023442513434068
42 1 1.59015 4.7704500000000003 4.7704500000000003 0.73155700968691229 -1.2740570400137652 1.9019556097074877
43 1 3.1802999999999999 3.1802999999999999 3.1802999999999999 -0.45583836230944585 1.9111771706846576 -1.8355503085115721
44 1 4.7704500000000003 4.7704500000000003 4.7704500000000003 0.67400151392354535 -0.20130010157142228 0.7006847030100064
45 1 6.3605999999999998 3.1802999999999999 3.1802999999999999 -0.6131364342011868 0.051851924454313192 0.91476542709355824
46 1 7.9507499999999993 4.7704500000000003 4.7704500000000003 -0.95129257749738128 1.4999944297936108 -0.014821894901506613
47 1 9.5409000000000006 3.1802999999999999 3.1802999999999999 -1.6789534656384995 0.38656976943584631 -1.5940299102238311
48 1 11.13105 4.7704500000000003 4.7704500000000003 1.7252154187046951 1.1961211643813765 -1.7983688497752353
49 1 0 6.3605999999999998 3.1802999999999999 -0.52138267502005076 -1.6227935972978926 -0.24252274233975521
50 1 1.59015 7.9507499999999993 4.7704500000000003 0.82679909811560182 -1.0471798406763777 -1.8780251176848608
51 1 3.1802999999999999 6.3605999999999998 3.1802999999999999 -1.440392650997347 -1.5188666362850858 0.082024411729626975
52 1 4.7704500000000003 7.9507499999999993 4.7704500000000003 -1.4469720903762535 1.354149607514783 0.18055722457969647
53 1 6.3605999999999998 6.3605999999999998 3.1802999999999999 -1.1773803839604371 -1.712279854825306 -0.97713902828236754
54 1 7.9507499999999993 7.9507499999999993 4.7704500000000003 -0.69324246351801611 -1.0540010232738675 0.98392906156627391
55 1 9.5409000000000006 6.3605999999999998 3.1802999999999999 -0.3905755273707418 0.7143510263296422 0.87142506730931379
56 1 11.13105 7.9507499999999993 4.7704500000000003 0.3086344564297514 1.7795392352056423 -1.9280811452895101
57 1 0 9.5409000000000006 3.1802999999999999 -1.7238155461716196 0.045997343027514688 -0.23719556875817316
58 1 1.59015 11.13105 4.7704500000000003 -1.3889353478316764 0.26587490050904905 -0.10267066203343697
59 1 3.1802999999999999 9.5409000000000006 3.1802999999999999 -1.7982902143631949 0.39235799327179877 -1.5573409437189996
60 1 4.7704500000000003 11.13105 4.7704500000000003 -1.0382183459940029 -0.77156102762593259 -0.89286241617320472
61 1 6.3605999999999998 9.5409000000000006 3.1802999999999999 -0.96710677122482813 -0.91460588561364942 1.7904382320132874
62 1 7.9507499999999993 11.13105 4.7704500000000003 1.4699934996250517 -1.3913224352854701 0.25373542631646046
63 1 9.5409000000000006 9.5409000000000006 3.1802999999999999 0.48800698686878813 1.8679979491464094 1.7961911307954765
64 1 11.13105 11.13105 4.7704500000000003 -0.40880994389156994 -1.8577716756268048 1.0992197104824013
65 1 0 0 6.3605999999999998 -0.031618412394957274 0.40334546425812007 0.77285446521788259
66 1 1.59015 1.59015 7.9507499999999993 -0.49590191863410221 1.1810769122955278 0.62360758478610889
67 1 3.1802999999999999 0 6.3605999999999998 -1.818122958432806 -0.67944234980906726 -0.48623663740680806
68 1 4.7704500000000003 1.59015 7.9507499999999993 0.18360730985257151 -0.6591164134975378 0.77081329523274089
69 1 6.3605999999999998 0 6.3605999999999998 -0.90174369705921165 -0.42671134325356364 0.75560227085482512
70 1 7.9507499999999993 1.59015 7.9507499999999993 -0.35124138189610637 1.3409917589609741 1.8919881406861965
71 1 9.5409000000000006 0 6.3605999999999998 1.9133365226754042 -1.5990445515768825 1.8199000929013736
72 1 11.13105 1.59015 7.9507499999999993 1.3981123983147936 2.0259546874396177 -1.4819422542353944
73 1 0 3.1802999999999999 6.3605999999999998 -1.0177014408040663 -0.35681336578198902 0.47520868300579416
74 1 1.59015 4.7704500000000003 7.9507499999999993 -0.54060883836863183 -0.60362418238759441 1.4880132183325465
75 1 3.1802999999999999 3.1802999999999999 6.3605999999999998 0.74332244696250005 1.9756691620815561 0.21972098072732968
76 1 4.7704500000000003 4.7704500000000003 7.9507499999999993 0.69770387027080383 1.0764144290210376 0.092886409151409818
77 1 6.3605999999999998 3.1802999999999999 6.3605999999999998 0.93972347409745816 0.57602092149296991 1.7572577214704903
78 1 7.9507499999999993 4.7704500000000003 7.9507499999999993 -1.4405911445159854 -0.80303099385637811 0.99243868248691058
79 1 9.5409000000000006 3.1802999999999999 6.3605999999999998 0.35668416173743117 -1.0323056948944527 0.94485421806197523
80 1 11.13105 4.7704500000000003 7.9507499999999993 -0.4101821737375162 -0.60934143535653129 -1.4077845964197411
81 1 0 6.3605999999999998 6.3605999999999998 1.8835109280748756 -0.44020294016812161 0.9096406980327818
82 1 1.59015 7.9507499999999993 7.9507499999999993 -1.1663028135206748 -1.9196991420838199 1.6267569840394249
83 1 3.1802999999999999 6.3605999999999998 6.3605999999999998 0.50108906071053916 -1.1169785525204279 0.070725871965199916
84 1 4.7704500000000003 7.9507499999999993 7.9507499999999993 -1.1055977143030333 1.3199346532826997 0.50192329170761829
85 1 6.3605999999999998 6.3605999999999998 6.3605999999999998 -0.39940100959360403 -1.746545126787 -1.5014630427212552
86 1 7.9507499999999993 7.9507499999999993 7.9507499999999993 -0.84783722916021276 2.0019797647737723 0.76315351902905615
87 1 9.5409000000000006 6.3605999999999998 6.3605999999999998 1.7144776363381649 -0.98947382191925703 -0.42094210010973721
88 1 11.13105 7.9507499999999993 7.9507499999999993 1.7455959388470297 -0.68135466882094087 -0.21125258851549072
89 1 0 9.5409000000000006 6.3605999999999998 -1.2351613849649974 -0.37767329494234775 -1.6528266395449458
90 1 1.59015 11.13105 7.9507499999999993 -1.3297308218785298 -1.4550451095783625 -1.027371926442503
91 1 3.1802999999999999 9.5409000000000006 6.3605999999999998 -0.2907945638789009 0.23969341860543533 1.5240298937049397
92 1 4.7704500000000003 11.13105 7.9507499999999993 -0.43773725343195258 -1.8091178990693852 0.33616785438952457
93 1 6.3605999999999998 9.5409000000000006 6.3605999999999998 -0.63677331787642266 -0.12546340745926976 -1.0656035611776162
94 1 7.9507499999999993 11.13105 7.9507499999999993 -1.8535078904457225 0.23768820575893115 0.23774726396348636
95 1 9.5409000000000006 9.5409000000000006 6.3605999999999998 1.111686139597422 1.7362821200558927 0.39450236551436663
96 1 11.13105 11.13105 7.9507499999999993 -0.85656321745026787 1.2132781403469235 -1.1271247197039895
97 1 0 0 9.5409000000000006 0.12014624133786987 -1.5953316623852158 -0.60823062565806663
98 1 1.59015 1.59015 11.13105 0.445030121170781 0.79690157502768111 -1.5087630569696902
99 1 3.1802999999999999 0 9.5409000000000006 -0.77873525598207016 0.49889064776140096 2.0419343730302963
100 1 4.7704500000000003 1.59015 11.13105 -0.87803906331958681 0.88927932084913852 -0.79989753520299001
101 1 6.3605999999999998 0 9.5409000000000006 -0.3800695880755291 -0.99664048701430608 0.68640395284732214
102 1 7.9507499999999993 1.59015 11.13105 -0.40617863116576303 1.8475392051989827 -1.6929567383688586
103 1 9.5409000000000006 0 9.5409000000000006 0.04066935345502095 -0.23103694956882184 -0.70082573697699713
104 1 11.13105 1.59015 11.13105 0.28499793313723476 1.6082808556536636 0.64475916356778851
105 1 0 3.1802999999999999 9.5409000000000006 -0.36925181961354125 -1.5186354045436157 -0.083579919567172603
106 1 1.59015 4.7704500000000003 11.13105 -0.070118719051106504 1.6352851233811609 0.69087131929960988
107 1 3.1802999999999999 3.1802999999999999 9.5409000000000006 -0.28524393980367102 0.33495941682374641 -1.8991572829702164
108 1 4.7704500000000003 4.7704500000000003 11.13105 0.24284523441573161 -1.8187059850888454 1.2658545325794981
109 1 6.3605999999999998 3.1802999999999999 9.5409000000000006 1.9534651120429012 0.22406605784581687 -1.8023849415902626
110 1 7.9507499999999993 4.7704500000000003 11.13105 2.0174303974918164 1.5308228996893154 -0.52600326101268924
111 1 9.5409000000000006 3.1802999999999999 9.5409000000000006 -1.3168366357372776 0.50598222683388094 -0.32738246123586662
112 1 11.13105 4.7704500000000003 11.13105 1.4400223179532483 1.3725534793864564 1.5487997980074963
113 1 0 6.3605999999999998 9.5409000000000006 1.7121159068677043 -0.16389893013288606 1.2551604923730686
114 1 1.59015 7.9507499999999993 11.13105 -1.6549207062632729 -0.8864644292723044 0.6896983697764586
115 1 3.1802999999999999 6.3605999999999998 9.5409000000000006 -1.2776964535252135 1.9245986156123056 0.88328303048953061
116 1 4.7704500000000003 7.9507499999999993 11.13105 0.79058441225062315 -1.9199736461670811 1.0650830668491538
117 1 6.3605999999999998 6.3605999999999998 9.5409000000000006 1.3741857084418845 1.0297828014111041 -1.6250502659927148
118 1 7.9507499999999993 7.9507499999999993 11.13105 -0.029239561915104073 -0.13447662266334809 1.4221044907672911
119 1 9.5409000000000006 6.3605999999999998 9.5409000000000006 0.36469724885701005 -0.069585412120499013 -1.9686966645416222
120 1 11.13105 7.9507499999999993 11.13105 -1.770874572591961 -0.75139871827666371 1.6660253719321398
121 1 0 9.5409000000000006 9.5409000000000006 -1.989865815002724 1.854625138904469 -0.10523904552128178
122 1 1.59015 11.13105 11.13105 1.3476331096971357 0.4710388183697799 -0.093398041083893227
123 1 3.1802999999999999 9.5409000000000006 9.5409000000000006 -0.33110229742061048 -0.54237711661760901 1.6807302284034251
124 1 4.7704500000000003 11.13105 11.13105 1.9665599106022351 1.5048700947721882 0.89215519642568331
125 1 6.3605999999999998 9.5409000000000006 9.5409000000000006 -0.13115168163629665 0.98908412997870321 -0.87378150970230817
126 1 7.9507499999999993 11.13105 11.13105 1.4245304799642549 0.3238698499791216 -1.8933615722304431
127 1 9.5409000000000006 9.5409000000000006 9.5409000000000006 1.8676211445437816 -0.073324875292360689 0.012805168882564381
128 1 11.13105 11.13105 11.13105 1.3404053380327463 0.55136676042153376 0.69022603234244528
