128
Lattice="1.2721200000000000e+01 0 0 0 1.2721200000000000e+01 0 0 0 1.2721200000000000e+01" Properties=species:S:1:pos:R:3:velo:R:3
W 0 0 0 -0.0026883065865651794 0.40168856413995424 1.2887476504742019
W 1.59015 1.59015 1.59015 1.9574574261457438 -1.5596863887638557 -1.201715978309098
W 3.1802999999999999 0 0 0.89428256985996857 -1.3890090838931264 -1.3849298243784525
W 4.7704500000000003 1.59015 1.59015 1.4612882644738889 -1.8312260543443362 1.5406934849728753
W 6.3605999999999998 0 0 -1.3985106468684765 1.4104723962623291 -1.3507254778513287
W 7.9507499999999993 1.59015 1.59015 -1.7674196910117543 0.58796905771262797 -0.02622734380338225
W 9.5409000000000006 0 0 0.13978592027147707 0.28353915005805047 0.99048816479362201
W 11.13105 1.59015 1.59015 1.0123133670831017 0.96757306660439013 -1.7896809356364396
W 0 3.1802999999999999 0 0.26589080174793883 0.57610420009023378 -0.89499510450081832
W 1.59015 4.7704500000000003 1.59015 -0.4809286279811662 1.6183678849439846 -0.0030203816175885271
W 3.1802999999999999 3.1802999999999999 0 1.924599703423298 1.3130886099380461 -1.1058733167959118
W 4.7704500000000003 4.7704500000000003 1.59015 1.4728490477618428 2.0307967877679762 -1.1390862391415917
W 6.3605999999999998 3.1802999999999999 0 0.38552768701265078 1.5627945941377088 1.9693255891976134
W 7.9507499999999993 4.7704500000000003 1.59015 -1.0516736857654605 -0.0081487963611374011 1.4097870169782472
W 9.5409000000000006 3.1802999999999999 0 0.5073850260614351 -0.65051036472743773 -0.45630859222571823
W 11.13105 4.7704500000000003 1.59015 1.082457068964555 0.76515342541396114 -0.24697387081465286
W 0 6.3605999999999998 0 -0.86261549427062478 0.79056687513834289 1.4256735778198941
W 1.59015 7.9507499999999993 1.59015 1.1285232560880627 1.0835642655638738 -1.2972971208378368
W 3.1802999999999999 6.3605999999999998 0 -1.8724336549862344 -1.7981720324755162 1.9671182393820486
W 4.7704500000000003 7.9507499999999993 1.59015 0.86274818757699157 -0.58634858012917368 0.10109324254919999
W 6.3605999999999998 6.3605999999999998 0 0.66766967068047356 -1.2707680231649552 0.45363484511280161
W 7.9507499999999993 7.9507499999999993 1.59015 1.4832361192511549 -1.678005939338812 -0.30754329254238677
W 9.5409000000000006 6.3605999999999998 0 0.7608916309464534 1.4710610371438735 -0.06840693726456841
W 11.13105 7.9507499999999993 1.59015 -0.72891948478143476 -0.99409829070844924 -1.1579810466178422
W 0 9.5409000000000006 0 -0.028729599612409708 0.33262737836097883 -0.57456562488958551
W 1.59015 11.13105 1.59015 1.9912571704279745 -0.7556536627012389 -0.96424999882159479
W 3.1802999999999999 9.5409000000000006 0 -1.157805353158285 -0.91995018775190596 1.1109088183206979
W 4.7704500000000003 11.13105 1.59015 -1.0917995335827435 -1.7851821713261879 1.4842392263451798
W 6.3605999999999998 9.5409000000000006 0 -0.78393372198874334 -1.7814871125884295 -1.243567931047556
W 7.9507499999999993 11.13105 1.59015 -0.0073282812667856533 -0.59595789287947676 0.67402225546144023
W 9.5409000000000006 9.5409000000000006 0 0.064755941932844577 -0.59936542092510825 0.13052533506995162
W 11.13105 11.13105 1.59015 -0.58623460195968635 -1.6236691329630364 1.2500141743119091
W 0 0 3.1802999999999999 1.1246700685830369 1.1537012314960735 -1.6129278611430666
W 1.59015 1.59015 4.7704500000000003 1.0084890479320221 1.5229004573143075 0.034742678222922652
W 3.1802999999999999 0 3.1802999999999999 1.9259417214990879 -0.44311085134796641 0.6593720205573701
W 4.7704500000000003 1.59015 4.7704500000000003 -0.058440203823205375 -0.62780374017286922 0.29380653935729684
W 6.3605999999999998 0 3.1802999999999999 -0.39192225306372752 -1.6604866447762114 -1.6506429221563854
W 7.9507499999999993 1.59015 4.7704500000000003 1.2689320616568278 -1.3327910759494823 -0.6253472878163967
W 9.5409000000000006 0 3.1802999999999999 -1.6231178577226966 -1.2289287517472076 -1.3871510083620655
W 11.13105 1.59015 4.7704500000000003 -1.6222453938013579 1.2788237436427636 -1.6233792958539361
W 0 3.1802999999999999 3.1802999999999999 -0.489416484427112 0.78003195427995242 -1.4023442513434066
W 1.59015 4.7704500000000003 4.7704500000000003 0.73155700968691217 -1.274057040013765 1.9019556097074874
W 3.1802999999999999 3.1802999999999999 3.1802999999999999 -0.45583836230944574 1.9111771706846574 -1.8355503085115716
W 4.7704500000000003 4.7704500000000003 4.7704500000000003 0.67400151392354535 -0.20130010157142225 0.7006847030100064
W 6.3605999999999998 3.1802999999999999 3.1802999999999999 -0.61313643420118669 0.051851924454313192 0.91476542709355813
W 7.9507499999999993 4.7704500000000003 4.7704500000000003 -0.95129257749738116 1.4999944297936105 -0.014821894901506528
W 9.5409000000000006 3.1802999999999999 3.1802999999999999 -1.6789534656384992 0.38656976943584626 -1.5940299102238309
W 11.13105 4.7704500000000003 4.7704500000000003 1.7252154187046949 1.1961211643813763 -1.798368849775235
W 0 6.3605999999999998 3.1802999999999999 -0.52138267502005065 -1.6227935972978924 -0.24252274233975507
W 1.59015 7.9507499999999993 4.7704500000000003 0.8267990981156017 -1.0471798406763775 -1.8780251176848606
W 3.1802999999999999 6.3605999999999998 3.1802999999999999 -1.4403926509973468 -1.5188666362850856 0.082024411729627045
W 4.7704500000000003 7.9507499999999993 4.7704500000000003 -1.4469720903762533 1.3541496075147827 0.18055722457969653
W 6.3605999999999998 6.3605999999999998 3.1802999999999999 -1.1773803839604369 -1.7122798548253058 -0.97713902828236743
W 7.9507499999999993 7.9507499999999993 4.7704500000000003 -0.69324246351801611 -1.0540010232738672 0.9839290615662738
W 9.5409000000000006 6.3605999999999998 3.1802999999999999 -0.39057552737074175 0.71435102632964209 0.87142506730931368
W 11.13105 7.9507499999999993 4.7704500000000003 0.30863445642975135 1.7795392352056421 -1.9280811452895099
W 0 9.5409000000000006 3.1802999999999999 -1.7238155461716194 0.045997343027514681 -0.23719556875817302
W 1.59015 11.13105 4.7704500000000003 -1.3889353478316762 0.26587490050904899 -0.10267066203343687
W 3.1802999999999999 9.5409000000000006 3.1802999999999999 -1.7982902143631947 0.39235799327179871 -1.5573409437189993
W 4.7704500000000003 11.13105 4.7704500000000003 -1.0382183459940026 -0.77156102762593248 -0.89286241617320461
W 6.3605999999999998 9.5409000000000006 3.1802999999999999 -0.96710677122482802 -0.91460588561364931 1.7904382320132877
W 7.9507499999999993 11.13105 4.7704500000000003 1.4699934996250514 -1.3913224352854698 0.25373542631646051
W 9.5409000000000006 9.5409000000000006 3.1802999999999999 0.48800698686878807 1.8679979491464092 1.7961911307954763
W 11.13105 11.13105 4.7704500000000003 -0.40880994389156988 -1.8577716756268046 1.0992197104824011
W 0 0 6.3605999999999998 -0.031618412394957274 0.40334546425812001 0.77285446521788259
W 1.59015 1.59015 7.9507499999999993 -0.49590191863410216 1.1810769122955276 0.62360758478610889
W 3.1802999999999999 0 6.3605999999999998 -1.8181229584328058 -0.67944234980906715 -0.48623663740680789
W 4.7704500000000003 1.59015 7.9507499999999993 0.18360730985257145 -0.65911641349753769 0.77081329523274089
W 6.3605999999999998 0 6.3605999999999998 -0.90174369705921154 -0.42671134325356358 0.75560227085482512
W 7.9507499999999993 1.59015 7.9507499999999993 -0.35124138189610632 1.3409917589609739 1.8919881406861963
W 9.5409000000000006 0 6.3605999999999998 1.913336522675404 -1.5990445515768823 1.8199000929013736
W 11.13105 1.59015 7.9507499999999993 1.3981123983147934 2.0259546874396177 -1.4819422542353942
W 0 3.1802999999999999 6.3605999999999998 -1.0177014408040663 -0.35681336578198897 0.47520868300579416
W 1.59015 4.7704500000000003 7.9507499999999993 -0.54060883836863172 -0.6036241823875943 1.4880132183325463
W 3.1802999999999999 3.1802999999999999 6.3605999999999998 0.74332244696249994 1.9756691620815556 0.21972098072732976
W 4.7704500000000003 4.7704500000000003 7.9507499999999993 0.69770387027080372 1.0764144290210373 0.092886409151409874
W 6.3605999999999998 3.1802999999999999 6.3605999999999998 0.93972347409745804 0.5760209214929698 1.7572577214704901
W 7.9507499999999993 4.7704500000000003 7.9507499999999993 -1.4405911445159851 -0.80303099385637799 0.99243868248691047
W 9.5409000000000006 3.1802999999999999 6.3605999999999998 0.35668416173743112 -1.0323056948944527 0.94485421806197512
W 11.13105 4.7704500000000003 7.9507499999999993 -0.41018217373751614 -0.60934143535653118 -1.4077845964197409
W 0 6.3605999999999998 6.3605999999999998 1.8835109280748754 -0.44020294016812156 0.90964069803278191
W 1.59015 7.9507499999999993 7.9507499999999993 -1.1663028135206746 -1.9196991420838196 1.6267569840394247
W 3.1802999999999999 6.3605999999999998 6.3605999999999998 0.50108906071053905 -1.1169785525204277 0.070725871965199971
W 4.7704500000000003 7.9507499999999993 7.9507499999999993 -1.1055977143030333 1.3199346532826994 0.5019232917076184
W 6.3605999999999998 6.3605999999999998 6.3605999999999998 -0.39940100959360397 -1.7465451267869998 -1.501463042721255
W 7.9507499999999993 7.9507499999999993 7.9507499999999993 -0.84783722916021265 2.0019797647737718 0.76315351902905615
W 9.5409000000000006 6.3605999999999998 6.3605999999999998 1.7144776363381646 -0.98947382191925692 -0.42094210010973704
W 11.13105 7.9507499999999993 7.9507499999999993 1.7455959388470295 -0.68135466882094076 -0.21125258851549061
W 0 9.5409000000000006 6.3605999999999998 -1.2351613849649974 -0.37767329494234769 -1.6528266395449456
W 1.59015 11.13105 7.9507499999999993 -1.3297308218785298 -1.4550451095783623 -1.027371926442503
W 3.1802999999999999 9.5409000000000006 6.3605999999999998 -0.29079456387890085 0.23969341860543528 1.5240298937049395
W 4.7704500000000003 11.13105 7.9507499999999993 -0.43773725343195252 -1.809117899069385 0.33616785438952462
W 6.3605999999999998 9.5409000000000006 6.3605999999999998 -0.63677331787642255 -0.12546340745926976 -1.0656035611776162
W 7.9507499999999993 11.13105 7.9507499999999993 -1.8535078904457223 0.23768820575893113 0.23774726396348642
W 9.5409000000000006 9.5409000000000006 6.3605999999999998 1.111686139597422 1.7362821200558924 0.39450236551436668
W 11.13105 11.13105 7.9507499999999993 -0.85656321745026776 1.2132781403469235 -1.1271247197039893
W 0 0 9.5409000000000006 0.12014624133786983 -1.5953316623852156 -0.6082306256580664
W 1.59015 1.59015 11.13105 0.44503012117078095 0.796901575027681 -1.5087630569696899
W 3.1802999999999999 0 9.5409000000000006 -0.77873525598207005 0.49889064776140091 2.0419343730302963
W 4.7704500000000003 1.59015 11.13105 -0.8780390633195867 0.88927932084913841 -0.79989753520298978
W 6.3605999999999998 0 9.5409000000000006 -0.38006958807552904 -0.99664048701430596 0.68640395284732214
W 7.9507499999999993 1.59015 11.13105 -0.40617863116576297 1.8475392051989825 -1.6929567383688584
W 9.5409000000000006 0 9.5409000000000006 0.040669353455020943 -0.23103694956882181 -0.7008257369769969
W 11.13105 1.59015 11.13105 0.28499793313723476 1.6082808556536634 0.64475916356778851
W 0 3.1802999999999999 9.5409000000000006 -0.3692518196135412 -1.5186354045436155 -0.083579919567172506
W 1.59015 4.7704500000000003 11.13105 -0.070118719051106504 1.6352851233811607 0.69087131929960988
W 3.1802999999999999 3.1802999999999999 9.5409000000000006 -0.28524393980367097 0.33495941682374636 -1.8991572829702161
W 4.7704500000000003 4.7704500000000003 11.13105 0.24284523441573158 -1.818705985088845 1.2658545325794981
W 6.3605999999999998 3.1802999999999999 9.5409000000000006 1.953465112042901 0.22406605784581685 -1.8023849415902624
W 7.9507499999999993 4.7704500000000003 11.13105 2.017430397491816 1.5308228996893152 -0.52600326101268913
W 9.5409000000000006 3.1802999999999999 9.5409000000000006 -1.3168366357372774 0.50598222683388083 -0.32738246123586651
W 11.13105 4.7704500000000003 11.13105 1.4400223179532481 1.3725534793864562 1.5487997980074961
W 0 6.3605999999999998 9.5409000000000006 1.7121159068677041 -0.16389893013288606 1.2551604923730684
W 1.59015 7.9507499999999993 11.13105 -1.6549207062632727 -0.88646442927230429 0.6896983697764586
W 3.1802999999999999 6.3605999999999998 9.5409000000000006 -1.2776964535252133 1.9245986156123052 0.88328303048953072
W 4.7704500000000003 7.9507499999999993 11.13105 0.79058441225062304 -1.9199736461670809 1.0650830668491535
W 6.3605999999999998 6.3605999999999998 9.5409000000000006 1.3741857084418843 1.0297828014111041 -1.6250502659927146
W 7.9507499999999993 7.9507499999999993 11.13105 -0.029239561915104077 -0.13447662266334806 1.4221044907672908
W 9.5409000000000006 6.3605999999999998 9.5409000000000006 0.36469724885700999 -0.069585412120499013 -1.968696664541622
W 11.13105 7.9507499999999993 11.13105 -1.7708745725919608 -0.7513987182766636 1.6660253719321396
W 0 9.5409000000000006 9.5409000000000006 -1.9898658150027237 1.8546251389044686 -0.10523904552128169
W 1.59015 11.13105 11.13105 1.3476331096971355 0.47103881836977984 -0.09339804108389313
W 3.1802999999999999 9.5409000000000006 9.5409000000000006 -0.33110229742061043 -0.54237711661760901 1.6807302284034249
W 4.7704500000000003 11.13105 11.13105 1.9665599106022349 1.504870094772188 0.89215519642568319
W 6.3605999999999998 9.5409000000000006 9.5409000000000006 -0.13115168163629665 0.9890841299787031 -0.87378150970230806
W 7.9507499999999993 11.13105 11.13105 1.4245304799642546 0.32386984997912155 -1.8933615722304429
W 9.5409000000000006 9.5409000000000006 9.5409000000000006 1.8676211445437814 -0.073324875292360675 0.012805168882564463
W 11.13105 11.13105 11.13105 1.3404053380327461 0.55136676042153376 0.69022603234244528
