1024
Lattice="140.1089660514 0.0 0.0 0.0 145.6055086782 0.0 0.0 0.0 114.3984917383" Properties=species:S:1:pos:R:3
Ta 0.0 0.0 0.23357869
Ta 0.0 97.07033912 114.23020925
Ta 0.0 105.15953405 114.19856232
Ta 0.0 113.24872897 114.17853181
Ta 0.0 0.0 80.31252291
Ta 0.0 121.3379239 114.16732681
Ta 0.0 0.0 86.03244749
Ta 32.69209208 72.80275434 0.06744386
Ta 0.0 129.42711883 114.16246379
Ta 0.0 0.0 91.75237208
Ta 37.36239095 72.80275434 1.32626313
Ta 35.02724151 74.15095349 1.39652993
Ta 35.02724151 71.45455518 4.40892661
Ta 32.69209208 72.80275434 5.78736845
Ta 0.0 137.51631375 114.16200338
Ta 0.0 0.0 97.47229667
Ta 37.36239095 75.49915265 2.79524046
Ta 37.36239095 72.80275434 7.04618771
Ta 35.02724151 74.15095349 7.11645451
Ta 35.02724151 71.45455518 10.1288512
Ta 32.69209208 72.80275434 11.50729303
Ta 0.0 0.0 103.19222125
Ta 37.36239095 75.49915265 8.51516505
Ta 37.36239095 72.80275434 12.7661123
Ta 35.02724151 74.15095349 12.8363791
Ta 35.02724151 71.45455518 15.84877578
Ta 32.69209208 72.80275434 17.22721762
Ta 0.0 0.0 108.91214584
Ta 37.36239095 75.49915265 14.23508963
Ta 37.36239095 72.80275434 18.48603689
Ta 35.02724151 74.15095349 18.55630369
Ta 35.02724151 71.45455518 21.56870037
Ta 32.69209208 72.80275434 22.94714221
Ta 37.36239095 75.49915265 19.95501422
Ta 37.36239095 72.80275434 24.20596147
Ta 35.02724151 74.15095349 24.27622827
Ta 35.02724151 71.45455518 27.28862496
Ta 32.69209208 72.80275434 28.66706679
Ta 37.36239095 75.49915265 25.67493881
Ta 37.36239095 72.80275434 29.92588606
Ta 35.02724151 74.15095349 29.99615286
Ta 35.02724151 71.45455518 33.00854955
Ta 32.69209208 72.80275434 34.38699138
Ta 107.41687397 0.0 0.34166533
Ta 37.36239095 75.49915265 31.39486339
Ta 37.36239095 72.80275434 35.64581065
Ta 35.02724151 74.15095349 35.71607745
Ta 35.02724151 71.45455518 38.72847413
Ta 32.69209208 72.80275434 40.10691597
Ta 112.08717284 0.0 0.327051
Ta 37.36239095 75.49915265 37.11478798
Ta 37.36239095 72.80275434 41.36573523
Ta 35.02724151 74.15095349 41.43600204
Ta 35.02724151 71.45455518 44.44839872
Ta 32.69209208 72.80275434 45.82684055
Ta 116.75747171 0.0 0.31187972
Ta 37.36239095 75.49915265 42.83471257
Ta 37.36239095 72.80275434 47.08565982
Ta 35.02724151 74.15095349 47.15592662
Ta 35.02724151 71.45455518 50.16832331
Ta 32.69209208 72.80275434 51.54676514
Ta 121.42777058 0.0 0.29642422
Ta 37.36239095 75.49915265 48.55463716
Ta 37.36239095 72.80275434 52.80558441
Ta 35.02724151 74.15095349 52.87585121
Ta 35.02724151 71.45455518 55.88824789
Ta 32.69209208 72.80275434 57.26668973
Ta 126.09806945 0.0 0.28093116
Ta 37.36239095 75.49915265 54.27456174
Ta 37.36239095 72.80275434 58.52550899
Ta 35.02724151 74.15095349 58.5957758
Ta 35.02724151 71.45455518 61.60817248
Ta 32.69209208 72.80275434 62.98661432
Ta 130.76836831 0.0 0.26561413
Ta 37.36239095 75.49915265 59.99448633
Ta 37.36239095 72.80275434 64.24543358
Ta 35.02724151 74.15095349 64.31570038
Ta 35.02724151 71.45455518 67.32809707
Ta 32.69209208 72.80275434 68.7065389
Ta 135.43866718 0.0 0.25064982
Ta 37.36239095 75.49915265 65.71441092
Ta 37.36239095 72.80275434 69.96535817
Ta 35.02724151 74.15095349 70.03562497
Ta 35.02724151 71.45455518 73.04802165
Ta 32.69209208 72.80275434 74.42646349
Ta 37.36239095 75.49915265 71.4343355
Ta 37.36239095 72.80275434 75.68528276
Ta 35.02724151 74.15095349 75.75554956
Ta 35.02724151 71.45455518 78.76794624
Ta 32.69209208 72.80275434 80.14638808
Ta 37.36239095 75.49915265 77.15426009
Ta 37.36239095 72.80275434 81.40520734
Ta 35.02724151 74.15095349 81.47547414
Ta 35.02724151 71.45455518 84.48787083
Ta 32.69209208 72.80275434 85.86631266
Ta 0.0 142.90911037 76.03058833
Ta 0.0 140.21271206 77.93637953
Ta 0.0 137.51631375 79.84245585
Ta 0.0 134.81991544 81.74885929
Ta 0.0 132.12351713 83.65563681
Ta 0.0 129.42711883 85.56284085
Ta 0.0 126.73072052 87.47052982
Ta 0.0 124.03432221 89.37876849
Ta 0.0 121.3379239 91.28762846
Ta 0.0 118.64152559 93.19718836
Ta 0.0 115.94512728 95.10753399
Ta 0.0 113.24872897 97.01875805
Ta 0.0 110.55233066 98.93095951
Ta 0.0 107.85593235 100.84424229
Ta 0.0 105.15953405 102.75871315
Ta 0.0 102.46313574 104.67447834
Ta 0.0 99.76673743 106.591639
Ta 0.0 97.07033912 108.51028466
Ta 0.0 94.37394081 110.43048515
Ta 107.41687397 72.80275434 0.09813507
Ta 105.08172454 74.15095349 0.99871264
Ta 105.08172454 71.45455518 4.62452608
Ta 37.36239095 75.49915265 82.87418468
Ta 37.36239095 72.80275434 87.12513193
Ta 35.02724151 74.15095349 87.19539873
Ta 35.02724151 71.45455518 90.20779541
Ta 32.69209208 72.80275434 91.58623725
Ta 0.0 142.90911037 81.75051292
Ta 0.0 140.21271206 83.65630412
Ta 0.0 137.51631375 85.56238044
Ta 0.0 134.81991544 87.46878388
Ta 0.0 132.12351713 89.37556139
Ta 0.0 129.42711883 91.28276544
Ta 0.0 126.73072052 93.1904544
Ta 0.0 124.03432221 95.09869308
Ta 0.0 121.3379239 97.00755304
Ta 0.0 118.64152559 98.91711295
Ta 0.0 115.94512728 100.82745858
Ta 0.0 113.24872897 102.73868264
Ta 0.0 110.55233066 104.6508841
Ta 0.0 107.85593235 106.56416688
Ta 0.0 105.15953405 108.47863773
Ta 0.0 102.46313574 110.39440293
Ta 0.0 99.76673743 112.31156358
Ta 107.41687397 72.80275434 5.81805966
Ta 105.08172454 74.15095349 6.71863722
Ta 105.08172454 71.45455518 10.34445066
Ta 37.36239095 75.49915265 88.59410926
Ta 37.36239095 72.80275434 92.84505652
Ta 35.02724151 74.15095349 92.91532332
Ta 35.02724151 71.45455518 95.92772
Ta 32.69209208 72.80275434 97.30616184
Ta 0.0 142.90911037 87.47043751
Ta 0.0 140.21271206 89.3762287
Ta 0.0 137.51631375 91.28230503
Ta 0.0 134.81991544 93.18870846
Ta 0.0 132.12351713 95.09548598
Ta 0.0 129.42711883 97.00269003
Ta 0.0 126.73072052 98.91037899
Ta 0.0 124.03432221 100.81861766
Ta 0.0 121.3379239 102.72747763
Ta 0.0 118.64152559 104.63703754
Ta 0.0 115.94512728 106.54738317
Ta 0.0 113.24872897 108.45860723
Ta 0.0 110.55233066 110.37080868
Ta 0.0 107.85593235 112.28409147
Ta 107.41687397 72.80275434 11.53798425
Ta 105.08172454 74.15095349 12.43856181
Ta 105.08172454 71.45455518 16.06437525
Ta 37.36239095 75.49915265 94.31403385
Ta 37.36239095 72.80275434 98.5649811
Ta 35.02724151 74.15095349 98.6352479
Ta 35.02724151 71.45455518 101.64764459
Ta 32.69209208 72.80275434 103.02608642
Ta 0.0 142.90911037 93.19036209
Ta 0.0 140.21271206 95.09615329
Ta 0.0 137.51631375 97.00222961
Ta 0.0 134.81991544 98.90863305
Ta 0.0 132.12351713 100.81541057
Ta 0.0 129.42711883 102.72261461
Ta 0.0 126.73072052 104.63030358
Ta 0.0 124.03432221 106.53854225
Ta 0.0 121.3379239 108.44740222
Ta 0.0 118.64152559 110.35696212
Ta 0.0 115.94512728 112.26730775
Ta 107.41687397 72.80275434 17.25790883
Ta 105.08172454 74.15095349 18.1584864
Ta 105.08172454 71.45455518 21.78429984
Ta 37.36239095 75.49915265 100.03395844
Ta 37.36239095 72.80275434 104.28490569
Ta 35.02724151 74.15095349 104.35517249
Ta 35.02724151 71.45455518 107.36756918
Ta 32.69209208 72.80275434 108.74601101
Ta 0.0 142.90911037 98.91028668
Ta 0.0 140.21271206 100.81607788
Ta 0.0 137.51631375 102.7221542
Ta 0.0 134.81991544 104.62855764
Ta 0.0 132.12351713 106.53533516
Ta 0.0 129.42711883 108.4425392
Ta 0.0 126.73072052 110.35022816
Ta 0.0 124.03432221 112.25846684
Ta 107.41687397 72.80275434 22.97783342
Ta 105.08172454 74.15095349 23.87841099
Ta 105.08172454 71.45455518 27.50422443
Ta 37.36239095 75.49915265 105.75388302
Ta 37.36239095 72.80275434 110.00483028
Ta 35.02724151 74.15095349 110.07509708
Ta 35.02724151 71.45455518 113.08749376
Ta 0.0 142.90911037 104.63021127
Ta 0.0 140.21271206 106.53600246
Ta 0.0 137.51631375 108.44207879
Ta 0.0 134.81991544 110.34848222
Ta 0.0 132.12351713 112.25525974
Ta 107.41687397 72.80275434 28.69775801
Ta 105.08172454 74.15095349 29.59833557
Ta 105.08172454 71.45455518 33.22414901
Ta 37.36239095 75.49915265 111.47380761
Ta 0.0 142.90911037 110.35013586
Ta 0.0 140.21271206 112.25592705
Ta 107.41687397 72.80275434 34.41768259
Ta 105.08172454 74.15095349 35.31826016
Ta 105.08172454 71.45455518 38.9440736
Ta 107.41687397 72.80275434 40.13760718
Ta 105.08172454 74.15095349 41.03818475
Ta 105.08172454 71.45455518 44.66399819
Ta 107.41687397 72.80275434 45.85753177
Ta 105.08172454 74.15095349 46.75810933
Ta 105.08172454 71.45455518 50.38392277
Ta 137.77381662 93.02574166 114.23499037
Ta 135.43866718 97.07033912 114.1988664
Ta 133.10351775 101.11493658 114.16521937
Ta 130.76836831 105.15953405 114.13527
Ta 128.43321888 109.20413151 114.109773
Ta 126.09806945 113.24872897 114.08901765
Ta 123.76292001 117.29332644 114.07292119
Ta 121.42777058 121.3379239 114.06115368
Ta 119.09262114 125.38252136 114.05325087
Ta 116.75747171 129.42711883 114.04869747
Ta 114.42232228 133.47171629 114.04698053
Ta 112.08717284 137.51631375 114.04761951
Ta 109.75202341 141.56091121 114.05018084
Ta 107.41687397 72.80275434 51.57745636
Ta 105.08172454 74.15095349 52.47803392
Ta 105.08172454 71.45455518 56.10384736
Ta 137.77381662 101.11493658 114.19518624
Ta 137.77381662 98.41853827 1.71479403
Ta 135.43866718 105.15953405 114.16697899
Ta 135.43866718 102.46313574 1.68397409
Ta 133.10351775 109.20413151 114.1419957
Ta 133.10351775 106.5077332 1.65626506
Ta 130.76836831 113.24872897 114.12071
Ta 130.76836831 110.55233066 1.63234233
Ta 128.43321888 117.29332644 114.10328867
Ta 128.43321888 114.59692813 1.61251752
Ta 126.09806945 121.3379239 114.08965326
Ta 126.09806945 118.64152559 1.59679431
Ta 123.76292001 125.38252136 114.07955673
Ta 123.76292001 122.68612305 1.58495551
Ta 121.42777058 129.42711883 114.07265394
Ta 121.42777058 126.73072052 1.57664973
Ta 119.09262114 133.47171629 114.0685561
Ta 119.09262114 130.77531798 1.57146084
Ta 116.75747171 137.51631375 114.06686829
Ta 116.75747171 134.81991544 1.56895666
Ta 114.42232228 141.56091121 114.06721261
Ta 114.42232228 138.86451291 1.56871929
Ta 112.08717284 142.90911037 1.57036212
Ta 107.41687397 72.80275434 57.29738094
Ta 105.08172454 74.15095349 58.19795851
Ta 105.08172454 71.45455518 61.82377195
Ta 137.77381662 109.20413151 114.17016163
Ta 137.77381662 106.5077332 1.68523404
Ta 137.77381662 1.34819915 76.50985671
Ta 135.43866718 113.24872897 114.14908099
Ta 135.43866718 110.55233066 1.66192145
Ta 135.43866718 0.0 80.32959404
Ta 133.10351775 117.29332644 114.13110406
Ta 133.10351775 114.59692813 1.64180611
Ta 133.10351775 1.34819915 82.24490294
Ta 130.76836831 121.3379239 114.11632581
Ta 130.76836831 118.64152559 1.62507774
Ta 130.76836831 0.0 86.06448293
Ta 128.43321888 125.38252136 114.10467333
Ta 128.43321888 122.68612305 1.61171856
Ta 128.43321888 1.34819915 87.98042152
Ta 126.09806945 129.42711883 114.09595517
Ta 126.09806945 126.73072052 1.60155888
Ta 126.09806945 0.0 91.79972455
Ta 123.76292001 133.47171629 114.08990715
Ta 123.76292001 130.77531798 1.59433224
Ta 123.76292001 1.34819915 93.71625063
Ta 121.42777058 137.51631375 114.08622915
Ta 121.42777058 134.81991544 1.58972115
Ta 121.42777058 0.0 97.53514219
Ta 119.09262114 141.56091121 114.08461178
Ta 119.09262114 138.86451291 1.58739086
Ta 119.09262114 1.34819915 99.45218775
Ta 116.75747171 142.90911037 1.58701193
Ta 116.75747171 0.0 103.27052228
Ta 114.42232228 1.34819915 105.1879919
Ta 112.08717284 0.0 109.00561815
Ta 109.75202341 1.34819915 110.92338926
Ta 107.41687397 72.80275434 63.01730553
Ta 105.08172454 74.15095349 63.91788309
Ta 105.08172454 71.45455518 67.54369653
Ta 137.77381662 117.29332644 114.15627582
Ta 137.77381662 114.59692813 1.66803478
Ta 137.77381662 1.34819915 82.2297813
Ta 135.43866718 121.3379239 114.14094312
Ta 135.43866718 118.64152559 1.65094297
Ta 135.43866718 0.0 86.04951862
Ta 133.10351775 125.38252136 114.12829235
Ta 133.10351775 122.68612305 1.63668695
Ta 133.10351775 1.34819915 87.96482752
Ta 130.76836831 129.42711883 114.11825656
Ta 130.76836831 126.73072052 1.62523788
Ta 130.76836831 0.0 91.78440752
Ta 128.43321888 133.47171629 114.11068324
Ta 128.43321888 130.77531798 1.61645926
Ta 128.43321888 1.34819915 93.70034611
Ta 126.09806945 137.51631375 114.10536524
Ta 126.09806945 134.81991544 1.61014346
Ta 126.09806945 0.0 97.51964913
Ta 123.76292001 141.56091121 114.10206628
Ta 123.76292001 138.86451291 1.60604276
Ta 123.76292001 1.34819915 99.43617521
Ta 121.42777058 142.90911037 1.6038933
Ta 121.42777058 0.0 103.25506678
Ta 119.09262114 1.34819915 105.17211234
Ta 116.75747171 0.0 108.99044687
Ta 114.42232228 1.34819915 110.90791649
Ta 107.41687397 72.80275434 68.73723012
Ta 105.08172454 74.15095349 69.63780768
Ta 105.08172454 71.45455518 73.26362112
Ta 137.77381662 125.38252136 114.15023571
Ta 137.77381662 122.68612305 1.65969911
Ta 137.77381662 1.34819915 87.94970589
Ta 135.43866718 129.42711883 114.13931959
Ta 135.43866718 126.73072052 1.64744544
Ta 135.43866718 0.0 91.76944321
Ta 133.10351775 133.47171629 114.1306156
Ta 133.10351775 130.77531798 1.63755813
Ta 133.10351775 1.34819915 93.68475211
Ta 130.76836831 137.51631375 114.12399964
Ta 130.76836831 134.81991544 1.62992492
Ta 130.76836831 0.0 97.5043321
Ta 128.43321888 141.56091121 114.11930595
Ta 128.43321888 138.86451291 1.62438035
Ta 128.43321888 1.34819915 99.4202707
Ta 126.09806945 142.90911037 1.62072742
Ta 126.09806945 0.0 103.23957372
Ta 123.76292001 1.34819915 105.1560998
Ta 121.42777058 0.0 108.97499137
Ta 119.09262114 1.34819915 110.89203692
Ta 107.41687397 72.80275434 74.4571547
Ta 105.08172454 74.15095349 75.35773227
Ta 105.08172454 71.45455518 78.98354571
Ta 137.77381662 133.47171629 114.14951563
Ta 137.77381662 130.77531798 1.65743916
Ta 137.77381662 1.34819915 93.66963047
Ta 135.43866718 137.51631375 114.14191895
Ta 135.43866718 134.81991544 1.64884208
Ta 135.43866718 0.0 97.4893678
Ta 133.10351775 141.56091121 114.13610883
Ta 133.10351775 138.86451291 1.64216622
Ta 133.10351775 1.34819915 99.4046767
Ta 130.76836831 142.90911037 1.63727725
Ta 130.76836831 0.0 103.22425669
Ta 128.43321888 1.34819915 105.14019528
Ta 126.09806945 0.0 108.95949831
Ta 123.76292001 1.34819915 110.87602439
Ta 107.41687397 72.80275434 80.17707929
Ta 105.08172454 74.15095349 81.07765685
Ta 105.08172454 71.45455518 84.70347029
Ta 137.77381662 141.56091121 114.15230279
Ta 137.77381662 138.86451291 1.65922132
Ta 137.77381662 1.34819915 99.38955506
Ta 135.43866718 142.90911037 1.65335139
Ta 135.43866718 0.0 103.20929239
Ta 133.10351775 1.34819915 105.12460129
Ta 130.76836831 0.0 108.94418128
Ta 128.43321888 1.34819915 110.86011987
Ta 107.41687397 72.80275434 85.89700388
Ta 105.08172454 74.15095349 86.79758144
Ta 105.08172454 71.45455518 90.42339488
Ta 137.77381662 1.34819915 105.10947965
Ta 135.43866718 0.0 108.92921697
Ta 133.10351775 1.34819915 110.84452587
Ta 107.41687397 72.80275434 91.61692846
Ta 105.08172454 74.15095349 92.51750603
Ta 105.08172454 71.45455518 96.14331947
Ta 137.77381662 1.34819915 110.82940424
Ta 107.41687397 72.80275434 97.33685305
Ta 105.08172454 74.15095349 98.23743062
Ta 105.08172454 71.45455518 101.86324406
Ta 107.41687397 72.80275434 103.05677764
Ta 105.08172454 74.15095349 103.9573552
Ta 105.08172454 71.45455518 107.58316864
Ta 107.41687397 72.80275434 108.77670222
Ta 105.08172454 74.15095349 109.67727979
Ta 105.08172454 71.45455518 113.30309323
Ta 135.43866718 142.90911037 76.01237102
Ta 135.43866718 140.21271206 77.91724764
Ta 135.43866718 137.51631375 79.82237143
Ta 135.43866718 134.81991544 81.7277863
Ta 135.43866718 132.12351713 83.63354234
Ta 135.43866718 129.42711883 85.53969665
Ta 135.43866718 126.73072052 87.44631424
Ta 135.43866718 124.03432221 89.35346901
Ta 135.43866718 121.3379239 91.26124478
Ta 135.43866718 118.64152559 93.16973636
Ta 135.43866718 115.94512728 95.0790506
Ta 135.43866718 113.24872897 96.98930723
Ta 135.43866718 110.55233066 98.90063943
Ta 135.43866718 107.85593235 100.81319388
Ta 135.43866718 105.15953405 102.72712982
Ta 135.43866718 102.46313574 104.64261666
Ta 135.43866718 99.76673743 106.55982953
Ta 135.43866718 97.07033912 108.47894181
Ta 135.43866718 94.37394081 110.40011375
Ta 133.10351775 141.56091121 79.81656131
Ta 133.10351775 138.86451291 81.72111044
Ta 133.10351775 136.1681146 83.62590521
Ta 133.10351775 133.47171629 85.53099267
Ta 133.10351775 130.77531798 87.43642693
Ta 133.10351775 128.07891967 89.34227022
Ta 133.10351775 125.38252136 91.24859401
Ta 133.10351775 122.68612305 93.15548034
Ta 133.10351775 119.98972474 95.06302326
Ta 133.10351775 117.29332644 96.9713303
Ta 133.10351775 114.59692813 98.88052409
Ta 133.10351775 111.90052982 100.79074383
Ta 133.10351775 109.20413151 102.70214653
Ta 133.10351775 106.5077332 104.61490763
Ta 133.10351775 103.81133489 106.52922061
Ta 133.10351775 101.11493658 108.44529479
Ta 133.10351775 98.41853827 110.36335021
Ta 130.76836831 142.90911037 81.71622147
Ta 130.76836831 140.21271206 83.62020035
Ta 130.76836831 137.51631375 85.52437671
Ta 130.76836831 134.81991544 87.42879373
Ta 130.76836831 132.12351713 89.33350151
Ta 130.76836831 129.42711883 91.23855821
Ta 130.76836831 126.73072052 93.14403127
Ta 130.76836831 124.03432221 95.04999896
Ta 130.76836831 121.3379239 96.95655205
Ta 130.76836831 118.64152559 98.86379572
Ta 130.76836831 115.94512728 100.77185175
Ta 130.76836831 113.24872897 102.68086082
Ta 130.76836831 110.55233066 104.59098489
Ta 130.76836831 107.85593235 106.50240949
Ta 130.76836831 105.15953405 108.41534541
Ta 130.76836831 102.46313574 110.33002935
Ta 128.43321888 141.56091121 85.51968302
Ta 128.43321888 138.86451291 87.42324915
Ta 128.43321888 136.1681146 89.32700137
Ta 128.43321888 133.47171629 91.23098489
Ta 128.43321888 130.77531798 93.13525265
Ta 128.43321888 128.07891967 95.03986666
Ta 128.43321888 125.38252136 96.94489957
Ta 128.43321888 122.68612305 98.85043654
Ta 128.43321888 119.98972474 100.75657746
Ta 128.43321888 117.29332644 102.6634395
Ta 128.43321888 114.59692813 104.57116009
Ta 128.43321888 111.90052982 106.47990027
Ta 128.43321888 109.20413151 108.38984842
Ta 128.43321888 106.5077332 110.30122403
Ta 126.09806945 142.90911037 87.41959623
Ta 126.09806945 140.21271206 89.32256656
Ta 126.09806945 137.51631375 91.2256669
Ta 126.09806945 134.81991544 93.12893685
Ta 126.09806945 132.12351713 95.03242323
Ta 126.09806945 129.42711883 96.93618141
Ta 126.09806945 126.73072052 98.84027686
Ta 126.09806945 124.03432221 100.74478711
Ta 126.09806945 121.3379239 102.64980409
Ta 126.09806945 118.64152559 104.55543687
Ta 126.09806945 115.94512728 106.46181512
Ta 126.09806945 113.24872897 108.36909307
Ta 126.09806945 110.55233066 110.27745434
Ta 123.76292001 141.56091121 91.22236793
Ta 123.76292001 138.86451291 93.12483615
Ta 123.76292001 136.1681146 95.0274113
Ta 123.76292001 133.47171629 96.93013339
Ta 123.76292001 130.77531798 98.83305021
Ta 123.76292001 128.07891967 100.73621885
Ta 123.76292001 125.38252136 102.63970756
Ta 123.76292001 122.68612305 104.54359808
Ta 123.76292001 119.98972474 106.44798846
Ta 123.76292001 117.29332644 108.3529966
Ta 123.76292001 114.59692813 110.25876457
Ta 121.42777058 142.90911037 93.12268669
Ta 121.42777058 140.21271206 95.02454884
Ta 121.42777058 137.51631375 96.92645539
Ta 121.42777058 134.81991544 98.82843913
Ta 121.42777058 132.12351713 100.73053964
Ta 121.42777058 129.42711883 102.63280476
Ta 121.42777058 126.73072052 104.53529229
Ta 121.42777058 124.03432221 106.43807216
Ta 121.42777058 121.3379239 108.34122909
Ta 121.42777058 118.64152559 110.24486606
Ta 119.09262114 141.56091121 96.92483802
Ta 119.09262114 138.86451291 98.82610883
Ta 119.09262114 136.1681146 100.7273881
Ta 119.09262114 133.47171629 102.62870693
Ta 119.09262114 130.77531798 104.53010341
Ta 119.09262114 128.07891967 106.43162417
Ta 119.09262114 125.38252136 108.33332628
Ta 119.09262114 122.68612305 110.23527965
Ta 116.75747171 142.90911037 98.82572991
Ta 116.75747171 140.21271206 100.72640353
Ta 116.75747171 137.51631375 102.62701912
Ta 116.75747171 134.81991544 104.52759922
Ta 116.75747171 132.12351713 106.42817208
Ta 116.75747171 129.42711883 108.32877288
Ta 116.75747171 126.73072052 110.2294454
Ta 114.42232228 141.56091121 102.62736344
Ta 114.42232228 138.86451291 104.52736185
Ta 114.42232228 136.1681146 106.42725317
Ta 114.42232228 133.47171629 108.32705594
Ta 114.42232228 130.77531798 110.22679409
Ta 112.08717284 142.90911037 104.52900468
Ta 112.08717284 140.21271206 106.42843694
Ta 112.08717284 137.51631375 108.32769493
Ta 112.08717284 134.81991544 110.22678796
Ta 109.75202341 141.56091121 108.33025625
Ta 109.75202341 138.86451291 110.22894047
Ta 107.41687397 142.90911037 110.23282341
Ta 0.0 99.76673743 0.77303414
Ta 0.0 107.85593235 0.74556202
Ta 0.0 0.0 77.45256061
Ta 0.0 115.94512728 0.72877831
Ta 0.0 0.0 83.1724852
Ta 0.0 124.03432221 0.71993739
Ta 0.0 0.0 88.89240979
Ta 35.02724151 71.45455518 1.54896432
Ta 32.69209208 72.80275434 2.92740615
Ta 0.0 132.12351713 0.7167303
Ta 0.0 0.0 94.61233437
Ta 37.36239095 75.49915265 114.3337699
Ta 37.36239095 72.80275434 4.18622542
Ta 35.02724151 74.15095349 4.25649222
Ta 35.02724151 71.45455518 7.2688889
Ta 32.69209208 72.80275434 8.64733074
Ta 0.0 140.21271206 0.71739761
Ta 0.0 0.0 100.33225896
Ta 37.36239095 75.49915265 5.65520275
Ta 37.36239095 72.80275434 9.90615001
Ta 35.02724151 74.15095349 9.97641681
Ta 35.02724151 71.45455518 12.98881349
Ta 32.69209208 72.80275434 14.36725533
Ta 0.0 0.0 106.05218355
Ta 37.36239095 75.49915265 11.37512734
Ta 37.36239095 72.80275434 15.62607459
Ta 35.02724151 74.15095349 15.69634139
Ta 35.02724151 71.45455518 18.70873808
Ta 32.69209208 72.80275434 20.08717991
Ta 0.0 0.0 111.77210813
Ta 37.36239095 75.49915265 17.09505193
Ta 37.36239095 72.80275434 21.34599918
Ta 35.02724151 74.15095349 21.41626598
Ta 35.02724151 71.45455518 24.42866267
Ta 32.69209208 72.80275434 25.8071045
Ta 37.36239095 75.49915265 22.81497651
Ta 37.36239095 72.80275434 27.06592377
Ta 35.02724151 74.15095349 27.13619057
Ta 35.02724151 71.45455518 30.14858725
Ta 32.69209208 72.80275434 31.52702909
Ta 37.36239095 75.49915265 28.5349011
Ta 37.36239095 72.80275434 32.78584835
Ta 35.02724151 74.15095349 32.85611515
Ta 35.02724151 71.45455518 35.86851184
Ta 32.69209208 72.80275434 37.24695367
Ta 37.36239095 75.49915265 34.25482569
Ta 37.36239095 72.80275434 38.50577294
Ta 35.02724151 74.15095349 38.57603974
Ta 35.02724151 71.45455518 41.58843643
Ta 32.69209208 72.80275434 42.96687826
Ta 37.36239095 75.49915265 39.97475027
Ta 37.36239095 72.80275434 44.22569753
Ta 35.02724151 74.15095349 44.29596433
Ta 35.02724151 71.45455518 47.30836101
Ta 32.69209208 72.80275434 48.68680285
Ta 37.36239095 75.49915265 45.69467486
Ta 37.36239095 72.80275434 49.94562211
Ta 35.02724151 74.15095349 50.01588892
Ta 35.02724151 71.45455518 53.0282856
Ta 32.69209208 72.80275434 54.40672744
Ta 37.36239095 75.49915265 51.41459945
Ta 37.36239095 72.80275434 55.6655467
Ta 35.02724151 74.15095349 55.7358135
Ta 35.02724151 71.45455518 58.74821019
Ta 32.69209208 72.80275434 60.12665202
Ta 37.36239095 75.49915265 57.13452404
Ta 37.36239095 72.80275434 61.38547129
Ta 35.02724151 74.15095349 61.45573809
Ta 35.02724151 71.45455518 64.46813477
Ta 32.69209208 72.80275434 65.84657661
Ta 37.36239095 75.49915265 62.85444862
Ta 37.36239095 72.80275434 67.10539587
Ta 35.02724151 74.15095349 67.17566268
Ta 35.02724151 71.45455518 70.18805936
Ta 32.69209208 72.80275434 71.5665012
Ta 37.36239095 75.49915265 68.57437321
Ta 37.36239095 72.80275434 72.82532046
Ta 35.02724151 74.15095349 72.89558726
Ta 35.02724151 71.45455518 75.90798395
Ta 32.69209208 72.80275434 77.28642578
Ta 37.36239095 75.49915265 74.2942978
Ta 37.36239095 72.80275434 78.54524505
Ta 35.02724151 74.15095349 78.61551185
Ta 35.02724151 71.45455518 81.62790853
Ta 32.69209208 72.80275434 83.00635037
Ta 105.08172454 71.45455518 1.76456378
Ta 37.36239095 75.49915265 80.01422238
Ta 37.36239095 72.80275434 84.26516964
Ta 35.02724151 74.15095349 84.33543644
Ta 35.02724151 71.45455518 87.34783312
Ta 32.69209208 72.80275434 88.72627496
Ta 0.0 142.90911037 78.89055063
Ta 0.0 140.21271206 80.79634182
Ta 0.0 137.51631375 82.70241815
Ta 0.0 134.81991544 84.60882158
Ta 0.0 132.12351713 86.5155991
Ta 0.0 129.42711883 88.42280315
Ta 0.0 126.73072052 90.33049211
Ta 0.0 124.03432221 92.23873078
Ta 0.0 121.3379239 94.14759075
Ta 0.0 118.64152559 96.05715066
Ta 0.0 115.94512728 97.96749629
Ta 0.0 113.24872897 99.87872035
Ta 0.0 110.55233066 101.7909218
Ta 0.0 107.85593235 103.70420459
Ta 0.0 105.15953405 105.61867544
Ta 0.0 102.46313574 107.53444064
Ta 0.0 99.76673743 109.45160129
Ta 0.0 97.07033912 111.37024696
Ta 0.0 94.37394081 113.29044745
Ta 107.41687397 72.80275434 2.95809737
Ta 105.08172454 74.15095349 3.85867493
Ta 105.08172454 71.45455518 7.48448837
Ta 37.36239095 75.49915265 85.73414697
Ta 37.36239095 72.80275434 89.98509422
Ta 35.02724151 74.15095349 90.05536102
Ta 35.02724151 71.45455518 93.06775771
Ta 32.69209208 72.80275434 94.44619954
Ta 0.0 142.90911037 84.61047521
Ta 0.0 140.21271206 86.51626641
Ta 0.0 137.51631375 88.42234273
Ta 0.0 134.81991544 90.32874617
Ta 0.0 132.12351713 92.23552369
Ta 0.0 129.42711883 94.14272773
Ta 0.0 126.73072052 96.0504167
Ta 0.0 124.03432221 97.95865537
Ta 0.0 121.3379239 99.86751534
Ta 0.0 118.64152559 101.77707524
Ta 0.0 115.94512728 103.68742087
Ta 0.0 113.24872897 105.59864493
Ta 0.0 110.55233066 107.51084639
Ta 0.0 107.85593235 109.42412917
Ta 0.0 105.15953405 111.33860003
Ta 0.0 102.46313574 113.25436522
Ta 107.41687397 72.80275434 8.67802195
Ta 105.08172454 74.15095349 9.57859952
Ta 105.08172454 71.45455518 13.20441296
Ta 37.36239095 75.49915265 91.45407156
Ta 37.36239095 72.80275434 95.70501881
Ta 35.02724151 74.15095349 95.77528561
Ta 35.02724151 71.45455518 98.78768229
Ta 32.69209208 72.80275434 100.16612413
Ta 0.0 142.90911037 90.3303998
Ta 0.0 140.21271206 92.236191
Ta 0.0 137.51631375 94.14226732
Ta 0.0 134.81991544 96.04867076
Ta 0.0 132.12351713 97.95544827
Ta 0.0 129.42711883 99.86265232
Ta 0.0 126.73072052 101.77034128
Ta 0.0 124.03432221 103.67857996
Ta 0.0 121.3379239 105.58743992
Ta 0.0 118.64152559 107.49699983
Ta 0.0 115.94512728 109.40734546
Ta 0.0 113.24872897 111.31856952
Ta 0.0 110.55233066 113.23077098
Ta 107.41687397 72.80275434 14.39794654
Ta 105.08172454 74.15095349 15.29852411
Ta 105.08172454 71.45455518 18.92433755
Ta 37.36239095 75.49915265 97.17399614
Ta 37.36239095 72.80275434 101.4249434
Ta 35.02724151 74.15095349 101.4952102
Ta 35.02724151 71.45455518 104.50760688
Ta 32.69209208 72.80275434 105.88604872
Ta 0.0 142.90911037 96.05032439
Ta 0.0 140.21271206 97.95611558
Ta 0.0 137.51631375 99.86219191
Ta 0.0 134.81991544 101.76859534
Ta 0.0 132.12351713 103.67537286
Ta 0.0 129.42711883 105.58257691
Ta 0.0 126.73072052 107.49026587
Ta 0.0 124.03432221 109.39850454
Ta 0.0 121.3379239 111.30736451
Ta 0.0 118.64152559 113.21692442
Ta 107.41687397 72.80275434 20.11787113
Ta 105.08172454 74.15095349 21.01844869
Ta 105.08172454 71.45455518 24.64426213
Ta 37.36239095 75.49915265 102.89392073
Ta 37.36239095 72.80275434 107.14486798
Ta 35.02724151 74.15095349 107.21513478
Ta 35.02724151 71.45455518 110.22753147
Ta 32.69209208 72.80275434 111.6059733
Ta 0.0 142.90911037 101.77024898
Ta 0.0 140.21271206 103.67604017
Ta 0.0 137.51631375 105.58211649
Ta 0.0 134.81991544 107.48851993
Ta 0.0 132.12351713 109.39529745
Ta 0.0 129.42711883 111.30250149
Ta 0.0 126.73072052 113.21019046
Ta 107.41687397 72.80275434 25.83779571
Ta 105.08172454 74.15095349 26.73837328
Ta 105.08172454 71.45455518 30.36418672
Ta 37.36239095 75.49915265 108.61384532
Ta 37.36239095 72.80275434 112.86479257
Ta 35.02724151 74.15095349 112.93505937
Ta 0.0 142.90911037 107.49017356
Ta 0.0 140.21271206 109.39596476
Ta 0.0 137.51631375 111.30204108
Ta 0.0 134.81991544 113.20844452
Ta 107.41687397 72.80275434 31.5577203
Ta 105.08172454 74.15095349 32.45829787
Ta 105.08172454 71.45455518 36.08411131
Ta 0.0 142.90911037 113.21009815
Ta 107.41687397 72.80275434 37.27764489
Ta 105.08172454 74.15095349 38.17822245
Ta 105.08172454 71.45455518 41.80403589
Ta 107.41687397 72.80275434 42.99756947
Ta 105.08172454 74.15095349 43.89814704
Ta 105.08172454 71.45455518 47.52396048
Ta 107.41687397 72.80275434 48.71749406
Ta 105.08172454 74.15095349 49.61807163
Ta 105.08172454 71.45455518 53.24388507
Ta 137.77381662 95.72213996 0.77470739
Ta 135.43866718 99.76673743 0.74122467
Ta 133.10351775 103.81133489 0.71061576
Ta 130.76836831 107.85593235 0.68380463
Ta 128.43321888 111.90052982 0.66129541
Ta 126.09806945 115.94512728 0.64321026
Ta 123.76292001 119.98972474 0.62938361
Ta 121.42777058 124.03432221 0.6194673
Ta 119.09262114 128.07891967 0.61301931
Ta 116.75747171 132.12351713 0.60956722
Ta 114.42232228 136.1681146 0.60864831
Ta 112.08717284 140.21271206 0.60983208
Ta 109.75202341 144.25730952 0.61273096
Ta 107.41687397 72.80275434 54.43741865
Ta 105.08172454 74.15095349 55.33799621
Ta 105.08172454 71.45455518 58.96380965
Ta 137.77381662 103.81133489 0.74020781
Ta 135.43866718 107.85593235 0.71451361
Ta 135.43866718 0.0 77.46963174
Ta 133.10351775 111.90052982 0.69206356
Ta 130.76836831 115.94512728 0.67317148
Ta 130.76836831 0.0 83.20452064
Ta 128.43321888 119.98972474 0.65789719
Ta 126.09806945 124.03432221 0.64610684
Ta 126.09806945 0.0 88.93976225
Ta 123.76292001 128.07891967 0.63753858
Ta 121.42777058 132.12351713 0.63185937
Ta 121.42777058 0.0 94.6751799
Ta 119.09262114 136.1681146 0.62870783
Ta 116.75747171 140.21271206 0.62772326
Ta 116.75747171 0.0 100.41055999
Ta 114.42232228 144.25730952 0.62856346
Ta 112.08717284 0.0 106.14565586
Ta 107.41687397 72.80275434 60.15734324
Ta 107.41687397 0.0 111.88019478
Ta 105.08172454 74.15095349 61.0579208
Ta 105.08172454 71.45455518 64.68373424
Ta 137.77381662 111.90052982 0.71930154
Ta 137.77381662 1.34819915 79.36981901
Ta 135.43866718 115.94512728 0.70029492
Ta 135.43866718 0.0 83.18955633
Ta 133.10351775 119.98972474 0.68426757
Ta 133.10351775 1.34819915 85.10486523
Ta 130.76836831 124.03432221 0.67124328
Ta 130.76836831 0.0 88.92444522
Ta 128.43321888 128.07891967 0.66111098
Ta 128.43321888 1.34819915 90.84038382
Ta 126.09806945 132.12351713 0.65366755
Ta 126.09806945 0.0 94.65968684
Ta 123.76292001 136.1681146 0.64865562
Ta 123.76292001 1.34819915 96.57621292
Ta 121.42777058 140.21271206 0.64579315
Ta 121.42777058 0.0 100.39510449
Ta 119.09262114 144.25730952 0.64479466
Ta 119.09262114 1.34819915 102.31215004
Ta 116.75747171 0.0 106.13048458
Ta 114.42232228 1.34819915 108.0479542
Ta 112.08717284 0.0 111.86558044
Ta 109.75202341 1.34819915 113.78335156
Ta 107.41687397 72.80275434 65.87726782
Ta 105.08172454 74.15095349 66.77784539
Ta 105.08172454 71.45455518 70.40365883
Ta 137.77381662 119.98972474 0.70836067
Ta 137.77381662 1.34819915 85.08974359
Ta 135.43866718 124.03432221 0.69463791
Ta 135.43866718 0.0 88.90948092
Ta 133.10351775 128.07891967 0.68343912
Ta 133.10351775 1.34819915 90.82478982
Ta 130.76836831 132.12351713 0.67467042
Ta 130.76836831 0.0 94.64436981
Ta 128.43321888 136.1681146 0.66817027
Ta 128.43321888 1.34819915 96.5603084
Ta 126.09806945 140.21271206 0.66373546
Ta 126.09806945 0.0 100.37961143
Ta 123.76292001 144.25730952 0.66114203
Ta 123.76292001 1.34819915 102.29613751
Ta 121.42777058 0.0 106.11502907
Ta 119.09262114 1.34819915 108.03207463
Ta 116.75747171 0.0 111.85040916
Ta 114.42232228 1.34819915 113.76787878
Ta 107.41687397 72.80275434 71.59719241
Ta 105.08172454 74.15095349 72.49776997
Ta 105.08172454 71.45455518 76.12358341
Ta 137.77381662 128.07891967 0.70433629
Ta 137.77381662 1.34819915 90.80966818
Ta 135.43866718 132.12351713 0.69463583
Ta 135.43866718 0.0 94.62940551
Ta 133.10351775 136.1681146 0.6869987
Ta 133.10351775 1.34819915 96.5447144
Ta 130.76836831 140.21271206 0.68129384
Ta 130.76836831 0.0 100.3642944
Ta 128.43321888 144.25730952 0.67735784
Ta 128.43321888 1.34819915 102.28023299
Ta 126.09806945 0.0 106.09953601
Ta 123.76292001 1.34819915 108.01606209
Ta 121.42777058 0.0 111.83495366
Ta 119.09262114 1.34819915 113.75199922
Ta 107.41687397 72.80275434 77.317117
Ta 105.08172454 74.15095349 78.21769456
Ta 105.08172454 71.45455518 81.843508
Ta 137.77381662 136.1681146 0.70495611
Ta 137.77381662 1.34819915 96.52959277
Ta 135.43866718 140.21271206 0.69826572
Ta 135.43866718 0.0 100.34933009
Ta 133.10351775 144.25730952 0.693235
Ta 133.10351775 1.34819915 102.26463899
Ta 130.76836831 0.0 106.08421898
Ta 128.43321888 1.34819915 108.00015758
Ta 126.09806945 0.0 111.8194606
Ta 123.76292001 1.34819915 113.73598668
Ta 107.41687397 72.80275434 83.03704158
Ta 105.08172454 74.15095349 83.93761915
Ta 105.08172454 71.45455518 87.56343259
Ta 137.77381662 144.25730952 0.70860911
Ta 137.77381662 1.34819915 102.24951735
Ta 135.43866718 0.0 106.06925468
Ta 133.10351775 1.34819915 107.98456358
Ta 130.76836831 0.0 111.80414357
Ta 128.43321888 1.34819915 113.72008216
Ta 107.41687397 72.80275434 88.75696617
Ta 105.08172454 74.15095349 89.65754373
Ta 105.08172454 71.45455518 93.28335717
Ta 137.77381662 1.34819915 107.96944194
Ta 135.43866718 0.0 111.78917927
Ta 133.10351775 1.34819915 113.70448817
Ta 107.41687397 72.80275434 94.47689076
Ta 105.08172454 74.15095349 95.37746832
Ta 105.08172454 71.45455518 99.00328176
Ta 137.77381662 1.34819915 113.68936653
Ta 107.41687397 72.80275434 100.19681534
Ta 105.08172454 74.15095349 101.09739291
Ta 105.08172454 71.45455518 104.72320635
Ta 107.41687397 72.80275434 105.91673993
Ta 105.08172454 74.15095349 106.8173175
Ta 105.08172454 71.45455518 110.44313094
Ta 107.41687397 72.80275434 111.63666452
Ta 105.08172454 74.15095349 112.53724208
Ta 137.77381662 144.25730952 75.06762874
Ta 137.77381662 141.56091121 76.97279298
Ta 137.77381662 138.86451291 78.87820325
Ta 137.77381662 136.1681146 80.78390033
Ta 137.77381662 133.47171629 82.6899304
Ta 137.77381662 130.77531798 84.59634567
Ta 137.77381662 128.07891967 86.50320509
Ta 137.77381662 125.38252136 88.41057506
Ta 137.77381662 122.68612305 90.31853021
Ta 137.77381662 119.98972474 92.22715406
Ta 137.77381662 117.29332644 94.13653976
Ta 137.77381662 114.59692813 96.04679046
Ta 137.77381662 111.90052982 97.95801952
Ta 137.77381662 109.20413151 99.87035016
Ta 137.77381662 106.5077332 101.78391431
Ta 137.77381662 103.81133489 103.69885038
Ta 137.77381662 101.11493658 105.61529936
Ta 137.77381662 98.41853827 107.53339889
Ta 137.77381662 95.72213996 109.45327454
Ta 137.77381662 93.02574166 111.37502807
Ta 135.43866718 142.90911037 78.87233331
Ta 135.43866718 140.21271206 80.77720993
Ta 135.43866718 137.51631375 82.68233372
Ta 135.43866718 134.81991544 84.58774859
Ta 135.43866718 132.12351713 86.49350463
Ta 135.43866718 129.42711883 88.39965894
Ta 135.43866718 126.73072052 90.30627654
Ta 135.43866718 124.03432221 92.2134313
Ta 135.43866718 121.3379239 94.12120707
Ta 135.43866718 118.64152559 96.02969866
Ta 135.43866718 115.94512728 97.9390129
Ta 135.43866718 113.24872897 99.84926952
Ta 135.43866718 110.55233066 101.76060172
Ta 135.43866718 107.85593235 103.67315618
Ta 135.43866718 105.15953405 105.58709211
Ta 135.43866718 102.46313574 107.50257895
Ta 135.43866718 99.76673743 109.41979182
Ta 135.43866718 97.07033912 111.3389041
Ta 135.43866718 94.37394081 113.26007604
Ta 133.10351775 144.25730952 80.77217922
Ta 133.10351775 141.56091121 82.6765236
Ta 133.10351775 138.86451291 84.58107273
Ta 133.10351775 136.1681146 86.48586751
Ta 133.10351775 133.47171629 88.39095496
Ta 133.10351775 130.77531798 90.29638923
Ta 133.10351775 128.07891967 92.20223251
Ta 133.10351775 125.38252136 94.1085563
Ta 133.10351775 122.68612305 96.01544264
Ta 133.10351775 119.98972474 97.92298555
Ta 133.10351775 117.29332644 99.83129259
Ta 133.10351775 114.59692813 101.74048638
Ta 133.10351775 111.90052982 103.65070613
Ta 133.10351775 109.20413151 105.56210882
Ta 133.10351775 106.5077332 107.47486992
Ta 133.10351775 103.81133489 109.38918291
Ta 133.10351775 101.11493658 111.30525708
Ta 133.10351775 98.41853827 113.22331251
Ta 130.76836831 142.90911037 84.57618376
Ta 130.76836831 140.21271206 86.48016264
Ta 130.76836831 137.51631375 88.384339
Ta 130.76836831 134.81991544 90.28875602
Ta 130.76836831 132.12351713 92.19346381
Ta 130.76836831 129.42711883 94.0985205
Ta 130.76836831 126.73072052 96.00399356
Ta 130.76836831 124.03432221 97.90996125
Ta 130.76836831 121.3379239 99.81651434
Ta 130.76836831 118.64152559 101.72375801
Ta 130.76836831 115.94512728 103.63181405
Ta 130.76836831 113.24872897 105.54082312
Ta 130.76836831 110.55233066 107.45094719
Ta 130.76836831 107.85593235 109.36237178
Ta 130.76836831 105.15953405 111.2753077
Ta 130.76836831 102.46313574 113.18999165
Ta 128.43321888 144.25730952 86.47622664
Ta 128.43321888 141.56091121 88.37964531
Ta 128.43321888 138.86451291 90.28321144
Ta 128.43321888 136.1681146 92.18696366
Ta 128.43321888 133.47171629 94.09094718
Ta 128.43321888 130.77531798 95.99521495
Ta 128.43321888 128.07891967 97.89982895
Ta 128.43321888 125.38252136 99.80486186
Ta 128.43321888 122.68612305 101.71039883
Ta 128.43321888 119.98972474 103.61653975
Ta 128.43321888 117.29332644 105.52340179
Ta 128.43321888 114.59692813 107.43112238
Ta 128.43321888 111.90052982 109.33986256
Ta 128.43321888 109.20413151 111.24981071
Ta 128.43321888 106.5077332 113.16118632
Ta 126.09806945 142.90911037 90.27955852
Ta 126.09806945 140.21271206 92.18252886
Ta 126.09806945 137.51631375 94.08562919
Ta 126.09806945 134.81991544 95.98889914
Ta 126.09806945 132.12351713 97.89238553
Ta 126.09806945 129.42711883 99.7961437
Ta 126.09806945 126.73072052 101.70023915
Ta 126.09806945 124.03432221 103.60474941
Ta 126.09806945 121.3379239 105.50976638
Ta 126.09806945 118.64152559 107.41539916
Ta 126.09806945 115.94512728 109.32177741
Ta 126.09806945 113.24872897 111.22905536
Ta 126.09806945 110.55233066 113.13741663
Ta 123.76292001 144.25730952 92.17993542
Ta 123.76292001 141.56091121 94.08233022
Ta 123.76292001 138.86451291 95.98479845
Ta 123.76292001 136.1681146 97.88737359
Ta 123.76292001 133.47171629 99.79009569
Ta 123.76292001 130.77531798 101.69301251
Ta 123.76292001 128.07891967 103.59618114
Ta 123.76292001 125.38252136 105.49966985
Ta 123.76292001 122.68612305 107.40356037
Ta 123.76292001 119.98972474 109.30795076
Ta 123.76292001 117.29332644 111.2129589
Ta 123.76292001 114.59692813 113.11872686
Ta 121.42777058 142.90911037 95.98264898
Ta 121.42777058 140.21271206 97.88451113
Ta 121.42777058 137.51631375 99.78641768
Ta 121.42777058 134.81991544 101.68840142
Ta 121.42777058 132.12351713 103.59050193
Ta 121.42777058 129.42711883 105.49276706
Ta 121.42777058 126.73072052 107.39525459
Ta 121.42777058 124.03432221 109.29803445
Ta 121.42777058 121.3379239 111.20119139
Ta 121.42777058 118.64152559 113.10482835
Ta 119.09262114 144.25730952 97.88351264
Ta 119.09262114 141.56091121 99.78480032
Ta 119.09262114 138.86451291 101.68607113
Ta 119.09262114 136.1681146 103.5873504
Ta 119.09262114 133.47171629 105.48866922
Ta 119.09262114 130.77531798 107.3900657
Ta 119.09262114 128.07891967 109.29158646
Ta 119.09262114 125.38252136 111.19328857
Ta 119.09262114 122.68612305 113.09524195
Ta 116.75747171 142.90911037 101.6856922
Ta 116.75747171 140.21271206 103.58636582
Ta 116.75747171 137.51631375 105.48698141
Ta 116.75747171 134.81991544 107.38756152
Ta 116.75747171 132.12351713 109.28813437
Ta 116.75747171 129.42711883 111.18873518
Ta 116.75747171 126.73072052 113.08940769
Ta 114.42232228 144.25730952 103.58720603
Ta 114.42232228 141.56091121 105.48732573
Ta 114.42232228 138.86451291 107.38732415
Ta 114.42232228 136.1681146 109.28721546
Ta 114.42232228 133.47171629 111.18701824
Ta 114.42232228 130.77531798 113.08675638
Ta 112.08717284 142.90911037 107.38896698
Ta 112.08717284 140.21271206 109.28839923
Ta 112.08717284 137.51631375 111.18765722
Ta 112.08717284 134.81991544 113.08675025
Ta 109.75202341 144.25730952 109.29129811
Ta 109.75202341 141.56091121 111.19021854
Ta 109.75202341 138.86451291 113.08890276
Ta 107.41687397 142.90911037 113.09278571
