1026
Lattice="132.096 0.0 0.0 0.0 132.096 0.0 0.0 0.0 132.096" Properties=species:S:1:pos:R:3
Ta 53.05457041 39.24346886 39.58091399
Ta 56.18691238 39.53474703 40.03511399
Ta 75.90908762 39.53474703 40.03511399
Ta 79.04142959 39.24346886 39.58091399
Ta 48.07010543 44.27968292 37.94670651
Ta 46.48893088 45.57327898 39.42636693
Ta 49.81109441 42.26203274 39.46414632
Ta 44.76037186 47.5756966 37.92651332
Ta 43.25436457 49.06487782 39.49958563
Ta 45.67731782 49.49411743 40.29103119
Ta 47.89577216 47.80375378 38.36789352
Ta 49.33043911 46.42498205 40.16276936
Ta 51.17947441 44.48089306 38.41638981
Ta 52.5712232 42.85518502 40.20098526
Ta 80.91652559 44.48089306 38.41638981
Ta 79.5247768 42.85518502 40.20098526
Ta 84.02589457 44.27968292 37.94670651
Ta 82.28490559 42.26203274 39.46414632
Ta 85.60706912 45.57327898 39.42636693
Ta 84.20022784 47.80375378 38.36789352
Ta 82.76556089 46.42498205 40.16276936
Ta 87.33562814 47.5756966 37.92651332
Ta 86.41868218 49.49411743 40.29103119
Ta 88.84163543 49.06487782 39.49958563
Ta 39.86487026 52.60403564 39.64682517
Ta 41.45296185 50.98011356 38.00003659
Ta 44.62995921 51.10789652 38.32119336
Ta 42.78574891 52.71514683 40.18804009
Ta 87.46604079 51.10789652 38.32119336
Ta 90.64303815 50.98011356 38.00003659
Ta 89.31025109 52.71514683 40.18804009
Ta 92.23112974 52.60403564 39.64682517
Ta 39.74597633 82.96850798 39.43452541
Ta 39.88494353 86.3360951 39.45635811
Ta 41.431658 84.41932359 38.01422395
Ta 44.51460029 84.29330708 38.41881856
Ta 42.71102683 82.50776317 40.13333898
Ta 45.83616126 85.89326387 40.2292215
Ta 44.74155153 87.77402056 37.98897492
Ta 43.14108517 86.70135764 39.35419043
Ta 47.83225362 87.59920879 38.41909494
Ta 48.02868826 91.10556847 37.95975595
Ta 46.68618172 89.669097 39.50499032
Ta 49.13868285 89.18602575 40.21282802
Ta 51.12657045 90.900564 38.42871356
Ta 80.96942955 90.900564 38.42871356
Ta 86.25983874 85.89326387 40.2292215
Ta 87.58139971 84.29330708 38.41881856
Ta 90.664342 84.41932359 38.01422395
Ta 89.38497317 82.50776317 40.13333898
Ta 84.26374638 87.59920879 38.41909494
Ta 84.06731174 91.10556847 37.95975595
Ta 82.95731715 89.18602575 40.21282802
Ta 85.40981828 89.669097 39.50499032
Ta 87.35444847 87.77402056 37.98897492
Ta 88.95491483 86.70135764 39.35419043
Ta 92.35002367 82.96850798 39.43452541
Ta 92.21105647 86.3360951 39.45635811
Ta 48.04312444 94.53209836 37.82285183
Ta 46.43078026 93.05363402 39.42278559
Ta 49.72514377 93.04302475 39.48690999
Ta 52.72718492 92.54664445 40.11179244
Ta 56.15154257 95.83649401 40.02584495
Ta 75.94445743 95.83649401 40.02584495
Ta 79.36881508 92.54664445 40.11179244
Ta 84.05287556 94.53209836 37.82285183
Ta 82.37085623 93.04302475 39.48690999
Ta 85.66521974 93.05363402 39.42278559
Ta 58.02386505 33.86128278 44.39924695
Ta 51.42366011 40.37915586 41.07919906
Ta 51.96573892 40.37489808 44.19188876
Ta 54.68655029 37.42954524 41.11548388
Ta 55.16468542 37.09391658 44.2464293
Ta 53.39012769 38.85001475 42.72166485
Ta 55.78558706 39.72711621 43.60679987
Ta 57.78811453 37.89629307 41.72323914
Ta 56.41082629 35.67559217 42.79264746
Ta 57.25595362 38.27299089 45.31187015
Ta 59.3911858 36.24580582 43.43352194
Ta 58.47503795 33.83242767 47.5557583
Ta 56.8209712 35.53094916 45.94885551
Ta 59.74835421 32.39614417 46.1347188
Ta 60.67527652 34.56274346 48.59601561
Ta 59.8352912 32.20802365 49.37279285
Ta 58.93732468 36.24762503 46.86736895
Ta 59.18504647 36.65799574 50.35589669
Ta 61.10467034 34.6172238 45.00331991
Ta 70.99132966 34.6172238 45.00331991
Ta 62.66812504 32.97096992 50.0565679
Ta 69.42787496 32.97096992 50.0565679
Ta 74.07213495 33.86128278 44.39924695
Ta 74.30788547 37.89629307 41.72323914
Ta 72.7048142 36.24580582 43.43352194
Ta 74.84004638 38.27299089 45.31187015
Ta 75.68517371 35.67559217 42.79264746
Ta 77.40944971 37.42954524 41.11548388
Ta 76.93131458 37.09391658 44.2464293
Ta 76.31041294 39.72711621 43.60679987
Ta 80.67233989 40.37915586 41.07919906
Ta 78.70587231 38.85001475 42.72166485
Ta 80.13026108 40.37489808 44.19188876
Ta 71.42072348 34.56274346 48.59601561
Ta 72.34764579 32.39614417 46.1347188
Ta 73.62096205 33.83242767 47.5557583
Ta 72.2607088 32.20802365 49.37279285
Ta 75.2750288 35.53094916 45.94885551
Ta 73.15867532 36.24762503 46.86736895
Ta 72.91095353 36.65799574 50.35589669
Ta 48.48494046 43.75505844 40.9708056
Ta 47.06463311 45.38912374 42.4990454
Ta 50.22665042 44.7739977 42.16681657
Ta 50.35159998 42.14365006 42.55294176
Ta 50.62386856 44.92045015 45.48223785
Ta 41.81432485 50.57847863 41.02530375
Ta 42.15653794 50.41553603 44.11451344
Ta 45.14583629 47.11661514 41.01320064
Ta 43.70248541 48.67111985 42.479424
Ta 47.35656015 48.06039828 41.90726687
Ta 50.48800848 42.08719981 45.74064951
Ta 54.15294753 41.12610785 41.99479305
Ta 77.94305247 41.12610785 41.99479305
Ta 81.86934958 44.7739977 42.16681657
Ta 81.47213144 44.92045015 45.48223785
Ta 83.61105954 43.75505844 40.9708056
Ta 81.74440002 42.14365006 42.55294176
Ta 85.03136689 45.38912374 42.4990454
Ta 84.73943985 48.06039828 41.90726687
Ta 86.95016371 47.11661514 41.01320064
Ta 90.28167515 50.57847863 41.02530375
Ta 88.39351459 48.67111985 42.479424
Ta 89.93946206 50.41553603 44.11451344
Ta 81.60799152 42.08719981 45.74064951
Ta 38.26723393 54.23215766 41.28950187
Ta 38.75382132 53.80564809 44.15073833
Ta 36.63006576 55.86878729 42.9315324
Ta 40.27293182 52.09702623 42.55900754
Ta 34.98120874 57.50775708 44.57818838
Ta 37.77898075 58.02810086 45.10850312
Ta 39.45581036 56.26311788 43.47394172
Ta 38.87708363 53.61960773 47.33079377
Ta 37.0227381 55.45379532 45.85085758
Ta 31.66903342 60.81041886 47.90803679
Ta 35.38449289 57.00298329 47.45726133
Ta 33.32586165 59.1522256 46.23367566
Ta 33.78060354 58.77835988 49.13114887
Ta 37.18478199 58.43112995 48.94971642
Ta 36.18201068 59.6281758 46.68562471
Ta 38.93490742 56.44741868 47.0853331
Ta 41.14649491 54.71969431 41.73835965
Ta 44.23130441 51.68331434 42.00126235
Ta 41.99361248 53.23314059 43.93767902
Ta 42.6861329 56.36800337 43.54201553
Ta 87.86469559 51.68331434 42.00126235
Ta 90.94950509 54.71969431 41.73835965
Ta 90.10238752 53.23314059 43.93767902
Ta 89.4098671 56.36800337 43.54201553
Ta 93.82876607 54.23215766 41.28950187
Ta 91.82306818 52.09702623 42.55900754
Ta 93.34217868 53.80564809 44.15073833
Ta 95.46593424 55.86878729 42.9315324
Ta 92.64018964 56.26311788 43.47394172
Ta 94.31701925 58.02810086 45.10850312
Ta 97.11479126 57.50775708 44.57818838
Ta 93.21891637 53.61960773 47.33079377
Ta 95.0732619 55.45379532 45.85085758
Ta 93.16109258 56.44741868 47.0853331
Ta 94.91121801 58.43112995 48.94971642
Ta 95.91398932 59.6281758 46.68562471
Ta 96.71150711 57.00298329 47.45726133
Ta 98.77013835 59.1522256 46.23367566
Ta 100.42696658 60.81041886 47.90803679
Ta 98.31539646 58.77835988 49.13114887
Ta 30.0334805 62.48888202 49.62418086
Ta 34.46882657 61.19006919 48.42894504
Ta 32.88838004 62.93515455 49.95157366
Ta 37.71471298 61.33073128 48.49905255
Ta 94.38128702 61.33073128 48.49905255
Ta 97.62717343 61.19006919 48.42894504
Ta 99.20761996 62.93515455 49.95157366
Ta 102.0625195 62.48888202 49.62418086
Ta 29.91894461 72.786585 46.30976138
Ta 30.25517087 73.03861727 49.40962656
Ta 31.5657583 74.45190444 44.65634707
Ta 31.7795661 74.7777051 47.63681567
Ta 31.91885586 75.54402816 50.55103353
Ta 31.92526765 78.13689587 47.59263199
Ta 32.04778429 78.2801705 50.76740028
Ta 34.18642019 73.91175787 48.61469693
Ta 32.67556906 72.22264479 50.23375637
Ta 34.86197738 77.75421086 41.36451913
Ta 33.21518468 76.10591039 43.00915599
Ta 35.18405102 78.07940686 44.37533077
Ta 33.4978839 76.37308285 46.08793842
Ta 35.62659881 78.71467536 47.13572272
Ta 34.20996628 76.52705225 48.9494945
Ta 33.57470444 79.79785325 45.93731806
Ta 37.96540052 77.57552825 41.6064375
Ta 36.30738136 75.91570811 43.25051613
Ta 37.57065483 77.12796577 45.34195685
Ta 35.92683299 75.56596084 46.93044251
Ta 36.70895638 79.70302414 42.72196836
Ta 36.92873033 80.26203547 45.70838597
Ta 39.15543659 78.90249177 43.64660618
Ta 40.93087253 80.65478008 41.89402111
Ta 91.16512747 80.65478008 41.89402111
Ta 94.13059948 77.57552825 41.6064375
Ta 94.52534517 77.12796577 45.34195685
Ta 92.94056341 78.90249177 43.64660618
Ta 97.90957981 73.91175787 48.61469693
Ta 97.23402262 77.75421086 41.36451913
Ta 95.78861864 75.91570811 43.25051613
Ta 96.91194898 78.07940686 44.37533077
Ta 96.16916701 75.56596084 46.93044251
Ta 96.46940119 78.71467536 47.13572272
Ta 95.38704362 79.70302414 42.72196836
Ta 95.16726967 80.26203547 45.70838597
Ta 100.5302417 74.45190444 44.65634707
Ta 100.3164339 74.7777051 47.63681567
Ta 99.42043094 72.22264479 50.23375637
Ta 100.17714414 75.54402816 50.55103353
Ta 98.88081532 76.10591039 43.00915599
Ta 98.5981161 76.37308285 46.08793842
Ta 100.17073235 78.13689587 47.59263199
Ta 97.88603372 76.52705225 48.9494945
Ta 100.04821571 78.2801705 50.76740028
Ta 98.52129556 79.79785325 45.93731806
Ta 102.17705539 72.786585 46.30976138
Ta 101.84082913 73.03861727 49.40962656
Ta 35.21059664 81.44445594 44.29474142
Ta 38.45754951 81.31088682 41.17072834
Ta 39.24416069 81.57118011 43.91885993
Ta 38.34521165 84.73587354 41.07156659
Ta 36.81350525 83.08424449 42.67009283
Ta 40.29548788 83.79630218 42.28030594
Ta 40.17309117 86.53465657 42.62682881
Ta 35.35888755 81.60372107 47.46227908
Ta 36.99359702 83.24642024 45.82865362
Ta 42.03811644 84.85380789 40.93054679
Ta 42.13158218 84.91325735 44.13935433
Ta 44.08760406 83.94631915 41.92942757
Ta 42.34892448 82.09789193 43.74912163
Ta 45.03196584 88.35330008 41.04818105
Ta 43.7600081 86.75719652 42.41314083
Ta 45.30881586 88.44777993 44.11370942
Ta 47.34342719 87.22731099 41.99562076
Ta 47.43973804 89.93693703 42.26626422
Ta 50.58119885 90.90239716 41.90972271
Ta 50.61837312 90.41068445 45.39877241
Ta 88.00839594 83.94631915 41.92942757
Ta 90.05788356 84.85380789 40.93054679
Ta 89.74707552 82.09789193 43.74912163
Ta 89.96441782 84.91325735 44.13935433
Ta 81.51480115 90.90239716 41.90972271
Ta 81.47762688 90.41068445 45.39877241
Ta 84.75257281 87.22731099 41.99562076
Ta 84.65626196 89.93693703 42.26626422
Ta 87.06403416 88.35330008 41.04818105
Ta 86.78718414 88.44777993 44.11370942
Ta 88.3359919 86.75719652 42.41314083
Ta 93.63845049 81.31088682 41.17072834
Ta 92.85183931 81.57118011 43.91885993
Ta 93.75078835 84.73587354 41.07156659
Ta 91.80051212 83.79630218 42.28030594
Ta 95.28249475 83.08424449 42.67009283
Ta 96.88540336 81.44445594 44.29474142
Ta 91.92290883 86.53465657 42.62682881
Ta 95.10240298 83.24642024 45.82865362
Ta 96.73711245 81.60372107 47.46227908
Ta 48.35975524 92.10461312 40.81269275
Ta 48.54465898 91.75365369 44.09601862
Ta 48.1328502 94.8223846 41.07307874
Ta 50.29201329 93.17738901 42.66066686
Ta 50.78598001 93.12939086 45.56378812
Ta 51.31855013 94.79213628 41.00558635
Ta 51.95532442 95.37287589 44.02802629
Ta 54.23640402 94.23845379 41.88792118
Ta 52.37857085 92.2655501 43.5799337
Ta 53.94982366 93.8205258 45.36829595
Ta 53.24167801 96.49163904 42.70649871
Ta 55.80552064 95.8355894 43.52031621
Ta 54.67959731 97.75235516 41.28380805
Ta 55.10827749 98.35399383 44.31408873
Ta 57.78550961 97.48089078 41.69448543
Ta 57.31338411 97.53857561 45.22018456
Ta 56.341968 99.47135425 42.87882756
Ta 53.68269245 96.49654261 45.89835063
Ta 55.71461774 95.49230159 46.97883665
Ta 57.34365833 97.16227745 48.68358603
Ta 56.40068083 100.00431226 46.06966204
Ta 58.0283325 101.59344258 47.64793983
Ta 56.86993719 99.83332516 49.19604006
Ta 59.168552 99.11924617 46.7843487
Ta 59.04590046 99.1171711 50.17455398
Ta 61.00556399 100.75259084 48.3438385
Ta 71.09043601 100.75259084 48.3438385
Ta 77.85959598 94.23845379 41.88792118
Ta 78.14617634 93.8205258 45.36829595
Ta 76.29047936 95.8355894 43.52031621
Ta 80.77744987 94.79213628 41.00558635
Ta 79.71742915 92.2655501 43.5799337
Ta 80.14067558 95.37287589 44.02802629
Ta 78.85432199 96.49163904 42.70649871
Ta 74.31049039 97.48089078 41.69448543
Ta 74.78261589 97.53857561 45.22018456
Ta 75.754032 99.47135425 42.87882756
Ta 77.41640269 97.75235516 41.28380805
Ta 76.98772251 98.35399383 44.31408873
Ta 76.38138226 95.49230159 46.97883665
Ta 78.41330755 96.49654261 45.89835063
Ta 74.75234167 97.16227745 48.68358603
Ta 72.927448 99.11924617 46.7843487
Ta 74.0676675 101.59344258 47.64793983
Ta 73.05009954 99.1171711 50.17455398
Ta 75.69531917 100.00431226 46.06966204
Ta 75.22606281 99.83332516 49.19604006
Ta 83.73624476 92.10461312 40.81269275
Ta 83.55134102 91.75365369 44.09601862
Ta 83.9631498 94.8223846 41.07307874
Ta 81.80398671 93.17738901 42.66066686
Ta 81.31001999 93.12939086 45.56378812
Ta 58.66016355 101.64113453 50.67773894
Ta 59.74095799 102.91458962 49.48430531
Ta 73.43583645 101.64113453 50.67773894
Ta 72.35504201 102.91458962 49.48430531
Ta 61.41164043 30.47356872 51.01211408
Ta 64.60880041 27.52302951 54.38404375
Ta 63.08771762 29.06853449 52.73291134
Ta 67.48719959 27.52302951 54.38404375
Ta 70.68435957 30.47356872 51.01211408
Ta 69.00828238 29.06853449 52.73291134
Ta 64.6505426 27.1505091 57.57854308
Ta 64.70986016 27.11047449 60.83081046
Ta 63.21539794 28.8783966 55.97708823
Ta 63.6154644 28.94881217 59.1229534
Ta 67.4454574 27.1505091 57.57854308
Ta 67.38613984 27.11047449 60.83081046
Ta 66.048 29.61361266 56.63774746
Ta 66.048 29.6533468 60.01085226
Ta 68.88060206 28.8783966 55.97708823
Ta 68.4805356 28.94881217 59.1229534
Ta 60.71827137 35.12791031 52.18973901
Ta 60.27518084 32.22369382 52.51729551
Ta 61.86084878 30.54909425 54.20068994
Ta 64.46345439 31.30769911 51.59901662
Ta 64.1102723 31.27664089 55.16768808
Ta 64.20620332 31.83758978 58.85025326
Ta 62.4764878 32.90087519 53.58972657
Ta 62.66833487 33.33160415 57.00955122
Ta 67.63254561 31.30769911 51.59901662
Ta 67.9857277 31.27664089 55.16768808
Ta 67.88979668 31.83758978 58.85025326
Ta 70.23515122 30.54909425 54.20068994
Ta 69.6195122 32.90087519 53.58972657
Ta 69.42766513 33.33160415 57.00955122
Ta 71.37772863 35.12791031 52.18973901
Ta 71.82081916 32.22369382 52.51729551
Ta 32.00000374 60.50791307 50.89966381
Ta 33.90612226 58.60289621 52.31789134
Ta 100.09599626 60.50791307 50.89966381
Ta 98.18987774 58.60289621 52.31789134
Ta 28.48005274 64.04542404 54.55796927
Ta 30.24185187 62.3081514 52.73702307
Ta 30.46169387 62.10683583 55.75106053
Ta 29.76904249 65.88686586 53.04844367
Ta 29.65026107 69.13398766 53.21428205
Ta 28.59176775 63.92013973 57.75333031
Ta 28.8588502 63.84688541 60.87050165
Ta 26.80740247 65.69610078 59.5193305
Ta 30.48164955 61.82193475 58.99264705
Ta 29.72532339 65.91202729 56.48383203
Ta 29.52797584 65.91821412 60.12992632
Ta 25.21490596 67.68832761 57.82939718
Ta 28.10352361 67.41444292 58.11038411
Ta 26.89244661 69.49612039 56.14930863
Ta 26.96834981 69.70887009 59.16947461
Ta 29.51144438 68.99447323 56.85333544
Ta 29.29301255 69.07861056 60.26384339
Ta 31.37738371 64.4311536 51.46091187
Ta 31.31856669 64.69322087 55.09247741
Ta 33.7520017 61.27560408 52.13171334
Ta 32.59143121 63.45389687 53.88354105
Ta 31.1234006 70.70364717 51.75984991
Ta 30.96387497 70.66798072 55.26114341
Ta 32.93731163 66.11278972 53.343052
Ta 31.25241882 64.62863193 58.59911464
Ta 32.50027706 63.13664066 57.09724695
Ta 32.17383279 63.13326097 60.59191322
Ta 30.93377651 70.68453615 58.63618149
Ta 32.79262243 66.13686032 60.28792308
Ta 98.3439983 61.27560408 52.13171334
Ta 100.71861629 64.4311536 51.46091187
Ta 99.50456879 63.45389687 53.88354105
Ta 100.77743331 64.69322087 55.09247741
Ta 99.15868837 66.11278972 53.343052
Ta 100.9725994 70.70364717 51.75984991
Ta 101.13212503 70.66798072 55.26114341
Ta 99.59572294 63.13664066 57.09724695
Ta 100.84358118 64.62863193 58.59911464
Ta 99.92216721 63.13326097 60.59191322
Ta 99.30337757 66.13686032 60.28792308
Ta 101.16222349 70.68453615 58.63618149
Ta 101.85414813 62.3081514 52.73702307
Ta 103.61594726 64.04542404 54.55796927
Ta 101.63430613 62.10683583 55.75106053
Ta 102.32695751 65.88686586 53.04844367
Ta 102.44573893 69.13398766 53.21428205
Ta 103.50423225 63.92013973 57.75333031
Ta 101.61435045 61.82193475 58.99264705
Ta 103.2371498 63.84688541 60.87050165
Ta 102.37067661 65.91202729 56.48383203
Ta 102.56802416 65.91821412 60.12992632
Ta 105.28859753 65.69610078 59.5193305
Ta 103.99247639 67.41444292 58.11038411
Ta 102.58455562 68.99447323 56.85333544
Ta 102.80298745 69.07861056 60.26384339
Ta 105.20355339 69.49612039 56.14930863
Ta 105.12765019 69.70887009 59.16947461
Ta 106.88109404 67.68832761 57.82939718
Ta 28.50239395 71.20744961 51.19978614
Ta 28.84795607 71.30838317 54.21637795
Ta 28.84438028 71.42698147 57.36543578
Ta 29.2823194 71.57173475 60.44098014
Ta 30.83929566 73.3865287 52.10804186
Ta 101.25670434 73.3865287 52.10804186
Ta 103.59360605 71.20744961 51.19978614
Ta 103.24804393 71.30838317 54.21637795
Ta 103.25161972 71.42698147 57.36543578
Ta 102.8136806 71.57173475 60.44098014
Ta 60.63698224 100.83682401 51.83385505
Ta 60.78287242 100.49417763 55.27370648
Ta 71.45901776 100.83682401 51.83385505
Ta 71.31312758 100.49417763 55.27370648
Ta 58.04846141 104.7892697 50.98772338
Ta 59.74776213 103.22347572 52.59144804
Ta 60.24887208 103.12315195 55.78950475
Ta 61.37377966 104.39552353 51.21014599
Ta 61.42751748 104.92520808 54.31869521
Ta 62.56082655 102.41296494 53.38496919
Ta 64.3821886 104.04763004 54.92393475
Ta 67.7138114 104.04763004 54.92393475
Ta 70.72222034 104.39552353 51.21014599
Ta 69.53517345 102.41296494 53.38496919
Ta 70.66848252 104.92520808 54.31869521
Ta 62.07442745 104.966691 57.27058074
Ta 62.01925631 104.96507366 60.58076239
Ta 62.44865513 102.42124322 56.78701077
Ta 64.10591952 104.10971675 58.37515139
Ta 63.06514609 106.21025468 56.07576992
Ta 63.13807385 106.44383227 59.3471873
Ta 67.99008048 104.10971675 58.37515139
Ta 66.048 105.71193275 59.72934084
Ta 69.64734487 102.42124322 56.78701077
Ta 70.02157255 104.966691 57.27058074
Ta 70.07674369 104.96507366 60.58076239
Ta 69.03085391 106.21025468 56.07576992
Ta 68.95792615 106.44383227 59.3471873
Ta 61.34348514 108.07381794 57.61203198
Ta 61.38441755 108.07241019 60.88312597
Ta 64.5913993 107.70027686 57.79836794
Ta 67.5046007 107.70027686 57.79836794
Ta 70.75251486 108.07381794 57.61203198
Ta 70.71158245 108.07241019 60.88312597
Ta 74.04753859 104.7892697 50.98772338
Ta 72.34823787 103.22347572 52.59144804
Ta 71.84712792 103.12315195 55.78950475
Ta 66.048 25.36993907 62.53606953
Ta 64.78955012 27.18869117 64.04381613
Ta 63.75533055 28.965292 62.36878657
Ta 63.75488686 28.97439136 65.6618116
Ta 67.30644988 27.18869117 64.04381613
Ta 66.048 25.48210471 65.85588087
Ta 66.048 29.9285222 63.61348008
Ta 68.34066945 28.965292 62.36878657
Ta 68.34111314 28.97439136 65.6618116
Ta 66.048 25.36366888 69.20439788
Ta 64.73381877 27.11995825 67.45944537
Ta 64.77346328 27.23939492 70.70667656
Ta 63.8042265 28.97562051 68.91696129
Ta 67.36218123 27.11995825 67.45944537
Ta 67.32253672 27.23939492 70.70667656
Ta 66.048 29.87054258 67.01381903
Ta 68.2917735 28.97562051 68.91696129
Ta 66.048 30.8966171 70.47347778
Ta 66.048 33.32392551 63.74899573
Ta 66.048 33.35786301 67.09688942
Ta 66.048 33.39941087 70.37467487
Ta 28.98027194 63.86337822 64.22420567
Ta 26.9544582 65.51915976 62.81217469
Ta 29.12553646 65.89793629 63.63870968
Ta 25.39212633 67.70168657 61.08199022
Ta 25.45319612 67.69319581 64.30021063
Ta 28.11616555 67.2817917 61.64750459
Ta 28.19722079 67.2044572 64.98409897
Ta 27.01963621 70.16927497 62.30912979
Ta 27.10163844 69.6604921 65.68492812
Ta 29.26671444 69.19978914 63.61977219
Ta 28.90614361 63.78285291 67.45194313
Ta 28.98125008 63.85270143 70.83353323
Ta 26.90388849 65.5877249 66.10513105
Ta 26.95325122 65.52577809 69.39851626
Ta 29.65185395 65.95153312 66.88989455
Ta 25.4398634 67.6901151 67.61610002
Ta 25.42652068 67.68491272 70.88008372
Ta 28.12804623 67.26060494 68.32601977
Ta 27.21477625 69.69133596 69.02655115
Ta 29.63385619 66.04949195 70.12969367
Ta 29.32269795 69.20605889 66.92128818
Ta 29.34378033 69.21948145 70.20692179
Ta 31.18102202 65.02183673 62.17118607
Ta 31.05685351 64.7222707 65.34989854
Ta 31.18540156 67.70092641 61.89446918
Ta 31.24254806 67.73938947 65.2508367
Ta 31.00987767 64.91883028 68.90456851
Ta 32.07916888 62.84197111 67.08961935
Ta 31.24415902 67.73202519 68.55772278
Ta 100.91497798 65.02183673 62.17118607
Ta 101.03914649 64.7222707 65.34989854
Ta 100.91059844 67.70092641 61.89446918
Ta 100.85345194 67.73938947 65.2508367
Ta 100.01683112 62.84197111 67.08961935
Ta 101.08612233 64.91883028 68.90456851
Ta 100.85184098 67.73202519 68.55772278
Ta 103.11572806 63.86337822 64.22420567
Ta 102.97046354 65.89793629 63.63870968
Ta 105.1415418 65.51915976 62.81217469
Ta 103.97983445 67.2817917 61.64750459
Ta 103.89877921 67.2044572 64.98409897
Ta 102.82928556 69.19978914 63.61977219
Ta 106.64280388 67.69319581 64.30021063
Ta 105.07636379 70.16927497 62.30912979
Ta 104.99436156 69.6604921 65.68492812
Ta 106.70387367 67.70168657 61.08199022
Ta 103.18985639 63.78285291 67.45194313
Ta 103.11474992 63.85270143 70.83353323
Ta 102.44414605 65.95153312 66.88989455
Ta 105.19211151 65.5877249 66.10513105
Ta 105.14274878 65.52577809 69.39851626
Ta 103.96795377 67.26060494 68.32601977
Ta 102.46214381 66.04949195 70.12969367
Ta 102.77330205 69.20605889 66.92128818
Ta 102.75221967 69.21948145 70.20692179
Ta 106.6561366 67.6901151 67.61610002
Ta 106.66947932 67.68491272 70.88008372
Ta 104.88122375 69.69133596 69.02655115
Ta 29.01824914 71.74842212 63.90995432
Ta 29.23346046 71.81141189 66.96996249
Ta 103.07775086 71.74842212 63.90995432
Ta 102.86253954 71.81141189 66.96996249
Ta 60.79072017 100.29219432 62.02725248
Ta 71.30527983 100.29219432 62.02725248
Ta 60.91094455 103.07596921 65.46604264
Ta 61.97674536 105.19769056 63.6951705
Ta 64.10787475 104.10972042 61.75294293
Ta 64.17940192 104.03728101 65.12934677
Ta 63.29773213 106.39146268 62.49870368
Ta 63.26378862 106.27951687 65.75192761
Ta 67.98812525 104.10972042 61.75294293
Ta 67.91659808 104.03728101 65.12934677
Ta 66.048 105.69564152 63.05136299
Ta 70.11925464 105.19769056 63.6951705
Ta 68.79826787 106.39146268 62.49870368
Ta 68.83221138 106.27951687 65.75192761
Ta 61.42203064 108.05008028 64.1652861
Ta 64.62460362 107.75116527 61.09166358
Ta 64.63480148 107.76036304 64.41597251
Ta 67.47139638 107.75116527 61.09166358
Ta 67.46119852 107.76036304 64.41597251
Ta 70.67396936 108.05008028 64.1652861
Ta 61.90497898 104.98265864 67.23296206
Ta 61.72631551 105.24327395 70.37149082
Ta 64.0984602 104.11185098 68.35365926
Ta 63.75641153 106.20361802 68.96539581
Ta 67.9975398 104.11185098 68.35365926
Ta 66.048 105.70908168 66.35438123
Ta 66.048 105.69178527 69.62955149
Ta 70.19102102 104.98265864 67.23296206
Ta 70.36968449 105.24327395 70.37149082
Ta 68.33958847 106.20361802 68.96539581
Ta 61.40665144 108.05016542 67.4724555
Ta 61.42186091 107.9966542 70.81220124
Ta 64.63532016 107.77695938 67.6951964
Ta 64.61589573 107.74432833 71.0409048
Ta 62.94463643 109.61708209 69.28031009
Ta 67.46067984 107.77695938 67.6951964
Ta 67.48010427 107.74432833 71.0409048
Ta 70.68934856 108.05016542 67.4724555
Ta 70.67413909 107.9966542 70.81220124
Ta 69.15136357 109.61708209 69.28031009
Ta 71.18505545 103.07596921 65.46604264
Ta 64.6802407 27.47840679 74.20513722
Ta 63.65522755 28.9778209 72.18239576
Ta 63.33992095 28.99103156 75.54681361
Ta 66.048 25.68817861 72.63514405
Ta 67.4157593 27.47840679 74.20513722
Ta 66.048 30.03985137 73.45365483
Ta 68.44077245 28.9778209 72.18239576
Ta 68.75607905 28.99103156 75.54681361
Ta 63.13027376 29.20162666 79.13639005
Ta 66.048 29.67822922 76.21048718
Ta 68.96572624 29.20162666 79.13639005
Ta 63.85176118 31.59640529 72.14699266
Ta 64.21460918 31.52302385 75.15064428
Ta 68.24423882 31.59640529 72.14699266
Ta 67.88139082 31.52302385 75.15064428
Ta 66.048 33.36932015 73.6479204
Ta 61.89943331 30.65271551 77.14788014
Ta 61.66759399 30.7609098 80.60952411
Ta 64.12271177 31.44166269 78.20213679
Ta 64.33407098 31.37416501 81.16091358
Ta 62.06289618 33.47937284 80.30354834
Ta 67.97328823 31.44166269 78.20213679
Ta 67.76192902 31.37416501 81.16091358
Ta 70.19656669 30.65271551 77.14788014
Ta 70.42840601 30.7609098 80.60952411
Ta 70.03310382 33.47937284 80.30354834
Ta 32.21889768 60.32758092 77.31398661
Ta 32.29039089 60.74578296 80.74470274
Ta 99.87710232 60.32758092 77.31398661
Ta 99.80560911 60.74578296 80.74470274
Ta 28.93089503 63.90608521 74.20341658
Ta 26.88354141 65.61275608 72.69262518
Ta 25.34563139 67.68267259 74.18468416
Ta 28.20359585 67.17923634 71.56462015
Ta 28.21391261 67.17134733 74.77427789
Ta 27.26811448 69.53846509 72.47105358
Ta 27.03168366 69.48935869 75.79903552
Ta 29.7910721 66.09141752 73.26076817
Ta 29.44677331 69.16722319 73.44801414
Ta 28.53943794 63.96030793 77.62498804
Ta 30.37621817 62.31119792 79.19317954
Ta 29.81244354 65.89264293 76.51236205
Ta 26.77991883 69.43764368 79.21205707
Ta 29.75324001 69.00435624 76.58308766
Ta 29.75861229 69.07334209 79.76310098
Ta 30.97726339 64.67422538 72.01947542
Ta 30.90170531 64.68074892 75.32740336
Ta 30.58000661 62.22670316 75.80981134
Ta 31.31477563 67.7416705 71.80674988
Ta 31.40945052 67.71363214 75.01838232
Ta 31.48328384 64.68903932 78.2734754
Ta 32.72650302 62.88968311 76.79480316
Ta 33.16625715 63.04061353 79.99252845
Ta 31.12138569 70.68970212 78.3940098
Ta 101.11873661 64.67422538 72.01947542
Ta 101.19429469 64.68074892 75.32740336
Ta 101.51599339 62.22670316 75.80981134
Ta 100.78122437 67.7416705 71.80674988
Ta 100.68654948 67.71363214 75.01838232
Ta 99.36949698 62.88968311 76.79480316
Ta 100.61271616 64.68903932 78.2734754
Ta 98.92974285 63.04061353 79.99252845
Ta 100.97461431 70.68970212 78.3940098
Ta 103.16510497 63.90608521 74.20341658
Ta 105.21245859 65.61275608 72.69262518
Ta 103.89240415 67.17923634 71.56462015
Ta 102.3049279 66.09141752 73.26076817
Ta 103.88208739 67.17134733 74.77427789
Ta 102.64922669 69.16722319 73.44801414
Ta 104.82788552 69.53846509 72.47105358
Ta 105.06431634 69.48935869 75.79903552
Ta 106.75036861 67.68267259 74.18468416
Ta 103.55656206 63.96030793 77.62498804
Ta 101.71978183 62.31119792 79.19317954
Ta 102.28355646 65.89264293 76.51236205
Ta 102.34275999 69.00435624 76.58308766
Ta 102.33738771 69.07334209 79.76310098
Ta 105.31608117 69.43764368 79.21205707
Ta 29.01020517 71.89469272 73.74663872
Ta 30.45001003 73.43306913 75.59450464
Ta 28.97838483 71.23913208 77.39253792
Ta 28.45639103 71.18836036 80.88207318
Ta 30.55662964 72.91557386 78.99403149
Ta 32.2703765 75.15908264 80.39542068
Ta 32.69182579 72.35022186 80.07593952
Ta 99.40417421 72.35022186 80.07593952
Ta 99.8256235 75.15908264 80.39542068
Ta 101.53937036 72.91557386 78.99403149
Ta 103.08579483 71.89469272 73.74663872
Ta 101.64598997 73.43306913 75.59450464
Ta 103.11761517 71.23913208 77.39253792
Ta 103.63960897 71.18836036 80.88207318
Ta 59.03797501 101.28840088 80.28099319
Ta 58.94267838 98.62296716 80.09575685
Ta 73.15332162 98.62296716 80.09575685
Ta 73.05802499 101.28840088 80.28099319
Ta 60.72974316 103.29884747 71.90534202
Ta 60.34785461 103.25095202 75.36202465
Ta 59.95081275 106.35182861 72.30779667
Ta 58.18200958 104.59445262 80.7013169
Ta 60.20167167 103.50503896 78.53743997
Ta 59.74822572 106.2270606 79.13738852
Ta 61.58967016 104.79783376 73.89749118
Ta 64.15264302 104.02881067 71.62572968
Ta 62.48784826 101.962083 73.49329468
Ta 64.30526249 103.98809814 74.6825772
Ta 63.26739785 106.15649506 72.41389871
Ta 63.02043888 106.08947059 75.98554008
Ta 67.94335698 104.02881067 71.62572968
Ta 67.79073751 103.98809814 74.6825772
Ta 66.048 105.72218355 72.82271694
Ta 69.60815174 101.962083 73.49329468
Ta 70.50632984 104.79783376 73.89749118
Ta 68.82860215 106.15649506 72.41389871
Ta 69.07556112 106.08947059 75.98554008
Ta 61.46611979 104.79688718 77.34753082
Ta 61.35484969 104.44939522 80.93163731
Ta 62.43411645 102.17376981 76.68638237
Ta 64.34065698 104.03734355 77.82344286
Ta 62.58196251 102.3033396 79.65331506
Ta 62.931368 105.95275325 79.3421209
Ta 67.75534302 104.03734355 77.82344286
Ta 69.66188355 102.17376981 76.68638237
Ta 70.62988021 104.79688718 77.34753082
Ta 69.51403749 102.3033396 79.65331506
Ta 70.74115031 104.44939522 80.93163731
Ta 69.164632 105.95275325 79.3421209
Ta 71.36625684 103.29884747 71.90534202
Ta 71.74814539 103.25095202 75.36202465
Ta 72.14518725 106.35182861 72.30779667
Ta 71.89432833 103.50503896 78.53743997
Ta 73.91399042 104.59445262 80.7013169
Ta 72.34777428 106.2270606 79.13738852
Ta 58.58604764 33.98742212 83.77596753
Ta 60.10819635 32.28712501 82.14642944
Ta 57.16793555 38.79652686 85.27200724
Ta 56.83473956 35.65230448 85.47204714
Ta 60.93512389 35.62337712 81.85285562
Ta 60.81709689 38.37730935 81.67093889
Ta 58.60953429 36.6054769 83.45342945
Ta 60.87635086 38.26840337 84.82658145
Ta 59.26439829 36.4925072 86.30774351
Ta 55.18117511 37.22373916 87.07395533
Ta 53.58755573 39.00670309 88.78408964
Ta 55.84706413 40.34865156 86.70840184
Ta 57.56283369 38.19849386 88.03279493
Ta 57.84537979 37.90318542 91.04937319
Ta 56.02547307 39.82403157 89.69996369
Ta 61.00270007 34.90162396 84.74772134
Ta 62.55397782 33.17579211 82.9643331
Ta 69.54202218 33.17579211 82.9643331
Ta 71.09329993 34.90162396 84.74772134
Ta 71.98780365 32.28712501 82.14642944
Ta 73.50995236 33.98742212 83.77596753
Ta 71.16087611 35.62337712 81.85285562
Ta 71.27890311 38.37730935 81.67093889
Ta 71.21964914 38.26840337 84.82658145
Ta 73.48646571 36.6054769 83.45342945
Ta 74.92806445 38.79652686 85.27200724
Ta 72.83160171 36.4925072 86.30774351
Ta 75.26126044 35.65230448 85.47204714
Ta 74.53316631 38.19849386 88.03279493
Ta 74.25062021 37.90318542 91.04937319
Ta 76.07052693 39.82403157 89.69996369
Ta 76.91482489 37.22373916 87.07395533
Ta 76.24893587 40.34865156 86.70840184
Ta 78.50844427 39.00670309 88.78408964
Ta 48.66300099 44.04139477 90.53934432
Ta 50.64279054 44.98288739 88.30969545
Ta 50.41138262 42.18381502 88.7036481
Ta 42.20068073 50.43407526 87.11121331
Ta 45.42151167 47.30675491 90.49628004
Ta 45.33677053 49.99397912 90.22172189
Ta 47.4797103 48.49646183 88.35748705
Ta 47.71940276 48.4381355 91.43232793
Ta 49.00295768 46.83391446 90.05152348
Ta 51.80367178 40.76696669 90.55228493
Ta 53.51696616 41.66301431 88.5100675
Ta 54.26626234 41.43532409 91.26602276
Ta 52.45350029 43.89371794 90.16281772
Ta 54.37879222 44.85509405 91.38062717
Ta 55.78344909 43.33352254 86.60500876
Ta 57.54190539 41.56293636 88.13361391
Ta 55.92326268 43.20191287 89.76913548
Ta 52.57462581 46.62676156 89.83057809
Ta 74.55409461 41.56293636 88.13361391
Ta 76.17273732 43.20191287 89.76913548
Ta 78.57903384 41.66301431 88.5100675
Ta 77.82973766 41.43532409 91.26602276
Ta 76.31255091 43.33352254 86.60500876
Ta 77.71720778 44.85509405 91.38062717
Ta 80.29232822 40.76696669 90.55228493
Ta 79.64249971 43.89371794 90.16281772
Ta 79.52137419 46.62676156 89.83057809
Ta 81.45320946 44.98288739 88.30969545
Ta 81.68461738 42.18381502 88.7036481
Ta 83.43299901 44.04139477 90.53934432
Ta 84.6162897 48.49646183 88.35748705
Ta 83.09304232 46.83391446 90.05152348
Ta 84.37659724 48.4381355 91.43232793
Ta 86.67448833 47.30675491 90.49628004
Ta 86.75922947 49.99397912 90.22172189
Ta 89.89531927 50.43407526 87.11121331
Ta 31.84161424 60.74283208 84.21051939
Ta 35.53898331 57.11824232 83.87588281
Ta 33.86146138 59.04725924 82.39587499
Ta 33.66901319 59.12015533 85.7716338
Ta 36.01442455 59.7349603 83.36300172
Ta 38.87880975 53.83280256 87.16774905
Ta 38.5408823 54.30274276 90.64523801
Ta 36.99409144 55.87655922 89.02215569
Ta 40.42313694 52.30583025 88.94508451
Ta 35.50704991 57.55767957 87.33055178
Ta 34.97399773 57.56169447 90.83919861
Ta 37.69973694 58.3482104 88.23149662
Ta 38.0744027 57.80450541 91.25325133
Ta 36.42474384 59.96558242 86.48614781
Ta 36.42419194 59.49724524 89.66469294
Ta 39.15475104 56.47109189 86.63584614
Ta 39.54596437 56.51715584 89.82850422
Ta 42.19443092 50.96973725 90.605154
Ta 40.85686172 55.38059835 88.49490597
Ta 44.25788078 51.7812668 88.40022026
Ta 42.04329606 53.12589551 86.9416496
Ta 42.49490488 53.21619135 89.85199556
Ta 44.61995066 54.87929007 91.44133215
Ta 87.83811922 51.7812668 88.40022026
Ta 87.47604934 54.87929007 91.44133215
Ta 89.90156908 50.96973725 90.605154
Ta 90.05270394 53.12589551 86.9416496
Ta 91.23913828 55.38059835 88.49490597
Ta 89.60109512 53.21619135 89.85199556
Ta 96.08157545 59.7349603 83.36300172
Ta 96.55701669 57.11824232 83.87588281
Ta 98.23453862 59.04725924 82.39587499
Ta 100.25438576 60.74283208 84.21051939
Ta 98.42698681 59.12015533 85.7716338
Ta 93.21719025 53.83280256 87.16774905
Ta 91.67286306 52.30583025 88.94508451
Ta 93.5551177 54.30274276 90.64523801
Ta 95.10190856 55.87655922 89.02215569
Ta 92.94124896 56.47109189 86.63584614
Ta 94.39626306 58.3482104 88.23149662
Ta 92.55003563 56.51715584 89.82850422
Ta 94.0215973 57.80450541 91.25325133
Ta 95.67125616 59.96558242 86.48614781
Ta 95.67180806 59.49724524 89.66469294
Ta 96.58895009 57.55767957 87.33055178
Ta 97.12200227 57.56169447 90.83919861
Ta 34.24270594 61.50254829 81.89419612
Ta 34.80887114 61.52054185 84.9164504
Ta 33.09798481 62.80692965 83.08465761
Ta 31.4680644 70.51280563 81.54446639
Ta 97.85329406 61.50254829 81.89419612
Ta 97.28712886 61.52054185 84.9164504
Ta 98.99801519 62.80692965 83.08465761
Ta 100.6279356 70.51280563 81.54446639
Ta 30.25459328 72.90069675 82.4837399
Ta 32.22744033 74.51749033 83.96391355
Ta 33.04768607 72.2516509 83.19947183
Ta 34.39566647 73.8649386 85.01626152
Ta 33.93840415 76.2083166 85.69599147
Ta 33.76388522 76.68661587 82.2225032
Ta 31.71157059 74.50556314 87.52224467
Ta 33.05408881 72.36026154 86.4050337
Ta 34.77504292 73.82292872 88.15127973
Ta 33.40945798 76.14378352 89.10539978
Ta 36.02966913 75.54456073 86.61643138
Ta 36.37550579 75.62570615 89.75800799
Ta 34.99238296 77.79305041 90.81809407
Ta 35.59068305 78.22767064 87.2473604
Ta 37.66219947 77.08491165 88.30937621
Ta 38.08242625 77.36329706 91.43016705
Ta 37.03196074 79.66879525 88.94475656
Ta 38.63651521 81.05095896 90.54767049
Ta 39.41159841 78.81692879 89.82371404
Ta 40.85910565 80.36538729 88.34184785
Ta 91.23689435 80.36538729 88.34184785
Ta 97.70033353 73.8649386 85.01626152
Ta 99.04831393 72.2516509 83.19947183
Ta 99.86855967 74.51749033 83.96391355
Ta 98.15759585 76.2083166 85.69599147
Ta 98.33211478 76.68661587 82.2225032
Ta 96.06633087 75.54456073 86.61643138
Ta 95.72049421 75.62570615 89.75800799
Ta 97.32095708 73.82292872 88.15127973
Ta 99.04191119 72.36026154 86.4050337
Ta 100.38442941 74.50556314 87.52224467
Ta 98.68654202 76.14378352 89.10539978
Ta 94.43380053 77.08491165 88.30937621
Ta 94.01357375 77.36329706 91.43016705
Ta 92.68440159 78.81692879 89.82371404
Ta 93.45948479 81.05095896 90.54767049
Ta 96.50531695 78.22767064 87.2473604
Ta 95.06403926 79.66879525 88.94475656
Ta 97.10361704 77.79305041 90.81809407
Ta 101.84140672 72.90069675 82.4837399
Ta 42.2021136 84.89350761 87.03721273
Ta 42.55533649 84.70358431 90.35748536
Ta 42.4448164 82.10675294 89.96994475
Ta 45.71788385 85.33978844 89.99775129
Ta 45.41078949 87.98304329 90.59347541
Ta 50.61867007 90.3606795 88.33999262
Ta 49.06338946 88.60642492 89.99209752
Ta 50.92542967 90.48816407 91.43903994
Ta 81.17057033 90.48816407 91.43903994
Ta 86.37811615 85.33978844 89.99775129
Ta 89.8938864 84.89350761 87.03721273
Ta 89.6511836 82.10675294 89.96994475
Ta 89.54066351 84.70358431 90.35748536
Ta 81.47732993 90.3606795 88.33999262
Ta 83.03261054 88.60642492 89.99209752
Ta 86.68521051 87.98304329 90.59347541
Ta 48.51849102 91.5941885 90.47553509
Ta 50.76354906 93.15519152 88.52266759
Ta 50.0545304 96.27547816 88.91169922
Ta 53.9190407 93.58647668 85.09471982
Ta 55.59183094 98.39438969 83.46980856
Ta 55.02447643 101.29317147 83.92631848
Ta 57.39472695 96.9535352 84.94879073
Ta 56.71030307 100.27932845 81.98121521
Ta 58.27622289 101.14487123 83.97181273
Ta 56.56126495 99.56357112 85.72497357
Ta 60.80974011 100.48911415 81.49318961
Ta 59.01288856 98.74329762 83.26647579
Ta 59.41867104 99.06813976 86.15971463
Ta 51.5839405 94.61708351 90.71526884
Ta 54.00354256 93.73381531 88.28113985
Ta 52.47550981 92.0158715 89.88872408
Ta 54.45499219 94.12500769 91.15101162
Ta 53.27982291 96.17124622 88.96390795
Ta 55.74462596 95.39227557 86.56685295
Ta 56.09933681 95.7691611 89.49256027
Ta 54.96094991 97.94848435 87.31472019
Ta 57.75556802 97.41575993 87.83013626
Ta 61.08319657 100.73408469 84.47092201
Ta 71.01280343 100.73408469 84.47092201
Ta 78.1769593 93.58647668 85.09471982
Ta 71.28625989 100.48911415 81.49318961
Ta 74.70127305 96.9535352 84.94879073
Ta 73.08311144 98.74329762 83.26647579
Ta 73.81977711 101.14487123 83.97181273
Ta 72.67732896 99.06813976 86.15971463
Ta 75.38569693 100.27932845 81.98121521
Ta 75.53473505 99.56357112 85.72497357
Ta 76.50416906 98.39438969 83.46980856
Ta 77.07152357 101.29317147 83.92631848
Ta 75.99666319 95.7691611 89.49256027
Ta 78.09245744 93.73381531 88.28113985
Ta 77.64100781 94.12500769 91.15101162
Ta 76.35137404 95.39227557 86.56685295
Ta 79.62049019 92.0158715 89.88872408
Ta 80.5120595 94.61708351 90.71526884
Ta 78.81617709 96.17124622 88.96390795
Ta 74.34043198 97.41575993 87.83013626
Ta 77.13505009 97.94848435 87.31472019
Ta 83.57750898 91.5941885 90.47553509
Ta 81.33245094 93.15519152 88.52266759
Ta 82.0414696 96.27547816 88.91169922
Ta 59.85487103 102.91631966 82.44292042
Ta 62.72376654 102.41752315 82.73972431
Ta 69.37223346 102.41752315 82.73972431
Ta 72.24112897 102.91631966 82.44292042
Ta 48.20164459 44.42269646 94.05801096
Ta 50.69998171 44.95743937 91.52781505
Ta 50.01483185 42.62810621 92.32865501
Ta 44.89484966 47.71662889 94.0782789
Ta 43.61201445 49.27915247 92.29286319
Ta 46.90370425 45.99850387 92.25489271
Ta 47.97393061 47.89405658 94.49854196
Ta 46.05207184 49.7640248 92.99011072
Ta 49.58620535 46.81232367 93.11937162
Ta 51.27281841 44.55462303 94.45259356
Ta 52.96813793 43.09767557 93.01744884
Ta 52.82776688 46.45889668 93.00964554
Ta 79.12786207 43.09767557 93.01744884
Ta 80.82318159 44.55462303 94.45259356
Ta 79.26823312 46.45889668 93.00964554
Ta 81.39601829 44.95743937 91.52781505
Ta 82.08116815 42.62810621 92.32865501
Ta 83.89435541 44.42269646 94.05801096
Ta 82.50979465 46.81232367 93.11937162
Ta 84.12206939 47.89405658 94.49854196
Ta 85.19229575 45.99850387 92.25489271
Ta 86.04392816 49.7640248 92.99011072
Ta 87.20115034 47.71662889 94.0782789
Ta 88.48398555 49.27915247 92.29286319
Ta 40.027526 52.63442055 92.4120499
Ta 41.60604705 51.01123428 94.0863147
Ta 41.44740706 54.84709104 91.51920566
Ta 44.40240047 52.17246652 91.69072215
Ta 44.69374025 51.2135349 94.54694568
Ta 43.01885148 53.1254707 93.02841205
Ta 44.66890463 54.63158439 94.69217507
Ta 87.69359953 52.17246652 91.69072215
Ta 87.40225975 51.2135349 94.54694568
Ta 87.42709537 54.63158439 94.69217507
Ta 90.48995295 51.01123428 94.0863147
Ta 90.64859294 54.84709104 91.51920566
Ta 89.07714852 53.1254707 93.02841205
Ta 92.068474 52.63442055 92.4120499
Ta 36.57194326 79.42338961 92.50315333
Ta 41.35281038 80.32179621 91.45576777
Ta 90.74318962 80.32179621 91.45576777
Ta 95.52405674 79.42338961 92.50315333
Ta 40.19162863 82.76134895 92.33212115
Ta 41.55845376 84.36774164 94.10767502
Ta 44.28434088 83.69192256 91.54214632
Ta 42.94077855 82.18092974 93.06091114
Ta 44.65827621 84.17578795 94.56912254
Ta 43.42426411 86.3317497 92.35201425
Ta 46.25468063 85.48519601 93.07749571
Ta 44.8336503 87.6884962 94.13814139
Ta 47.60990302 87.04123512 91.4752839
Ta 47.9591659 87.46406861 94.56892092
Ta 47.06351027 89.39293909 92.20150026
Ta 48.08620678 90.98409316 94.16357018
Ta 49.4760535 88.96469761 92.98106961
Ta 51.25372553 90.85650197 94.47296599
Ta 80.84227447 90.85650197 94.47296599
Ta 85.84131937 85.48519601 93.07749571
Ta 87.81165912 83.69192256 91.54214632
Ta 87.43772379 84.17578795 94.56912254
Ta 89.15522145 82.18092974 93.06091114
Ta 90.53754624 84.36774164 94.10767502
Ta 88.67173589 86.3317497 92.35201425
Ta 84.48609698 87.04123512 91.4752839
Ta 84.1368341 87.46406861 94.56892092
Ta 82.6199465 88.96469761 92.98106961
Ta 84.00979322 90.98409316 94.16357018
Ta 85.03248973 89.39293909 92.20150026
Ta 87.2623497 87.6884962 94.13814139
Ta 91.90437137 82.76134895 92.33212115
Ta 49.93834113 92.60222712 92.28157905
Ta 52.84996287 92.48906433 92.81024251
Ta 79.24603713 92.48906433 92.81024251
Ta 82.15765887 92.60222712 92.28157905
