100
Lattice="12.6055002213 0.0 0.0 0.0 12.6055002213 0.0 0.0 0.0 12.6055002213" Properties=species:S:1:pos:R:3:forces:R:3 energy=-1099.673012 stress="64329.38 4705.339999999999 16428.34 4705.339999999999 41963.4 -4448.86 16428.34 -4448.86 54142.01"
Ta 0.38188 4.35838 0.74564 -0.727255 -2.684915 -1.502186
Ta 1.34891 1.23814 1.97516 -0.901556 -0.105425 1.00657
Ta 3.91629 1.3428 2.33074 3.786054 2.848263 -0.971111
Ta 2.50882 2.14034 12.20579 -0.262289 0.109978 0.538412
Ta 8.20217 1.50457 1.09255 -0.492384 -1.785903 2.601547
Ta 10.36593 3.31163 1.41537 1.881298 -2.609227 -1.324217
Ta 10.4022 0.62792 3.78647 -0.90696 3.879838 -1.72804
Ta 1.89782 6.78766 2.24739 0.610213 0.257066 0.30111
Ta 5.50184 3.35273 0.83641 -0.560965 -1.138714 0.441504
Ta 2.32284 3.6359 2.17719 2.602499 1.961671 1.752727
Ta 5.3072 5.9129 1.35024 -1.807728 1.348974 1.869601
Ta 7.97916 4.52402 2.2256 -1.448678 0.224978 0.932881
Ta 12.08411 5.36653 3.17826 1.407869 -0.153369 -2.235907
Ta 9.93622 6.94867 2.71342 -0.96168 -0.819272 -0.695758
Ta 9.90617 5.56065 0.39246 1.437756 2.22277 -1.483484
Ta 2.03145 9.47094 3.47002 -0.365866 -1.501921 0.223241
Ta 3.89512 9.09235 1.57401 -0.289378 -1.595243 -0.704364
Ta 6.55755 9.06145 1.13007 1.481441 -1.964278 0.317382
Ta 7.19441 5.95163 12.15045 5.313352 -0.388306 3.350518
Ta 0.47731 6.73144 12.49172 -2.324959 2.468907 0.162569
Ta 11.99106 8.65573 2.136 0.320078 0.329798 0.427882
Ta 10.46579 8.3526 12.36863 0.469025 0.961865 1.106144
Ta 1.09582 9.74623 0.42674 -0.367347 0.331195 0.683008
Ta 6.08716 11.81081 1.97743 -0.347952 0.939564 0.150091
Ta 10.03534 11.67059 1.4824 1.765295 -0.063423 0.419687
Ta 0.08024 12.16929 6.35254 3.013201 1.559359 -1.565584
Ta 2.71663 1.31896 5.17141 1.289295 0.727934 -0.294145
Ta 7.31848 1.89673 4.23838 -0.731578 2.730215 -0.825462
Ta 10.8977 1.28949 6.47917 -5.83876 3.773198 -2.47763
Ta 0.45432 2.51989 4.22159 -3.64939 -0.925817 -2.950598
Ta 1.70947 4.66775 4.8384 0.462076 1.170048 -2.403113
Ta 4.57205 3.37193 4.25893 -0.109762 0.615399 0.386449
Ta 6.6353 4.9693 5.07404 -0.677674 0.753118 -0.691499
Ta 9.08878 7.33531 5.79768 -1.926322 -3.675185 0.927457
Ta 9.91121 3.22337 3.84582 -0.878305 0.821935 2.646587
Ta 11.32221 4.97359 5.54846 -1.015803 -0.259629 1.700732
Ta 0.53406 7.05513 5.42905 4.213154 0.915513 -0.387097
Ta 4.46164 6.80136 4.09833 -0.176562 -0.533475 -2.129646
Ta 3.93041 8.596 5.90044 -2.349383 1.463451 1.214532
Ta 7.45709 7.32471 3.28984 -1.580622 -0.59473 -0.153408
Ta 8.73043 9.80728 2.84372 -0.269419 -1.581451 0.380496
Ta 8.3667 9.63065 6.92756 1.753511 2.485611 1.143484
Ta 11.10448 8.19971 4.67383 -2.984282 1.041303 -1.700702
Ta 12.33138 11.59365 3.22318 2.360024 -1.006585 -0.789645
Ta 12.53349 9.89403 5.63928 3.735451 -1.567194 1.41596
Ta 3.05157 11.96433 3.46769 -2.586656 -4.605553 1.003837
Ta 5.53812 9.74587 3.73544 -0.624627 0.711032 0.321477
Ta 5.17764 0.08755 4.56072 0.792806 1.090161 2.480897
Ta 7.64882 11.92872 4.33422 1.371203 -2.646937 -1.592811
Ta 10.26273 11.13472 4.99862 -1.516508 -2.562682 1.139746
Ta 0.63147 2.19678 6.67724 -1.933442 4.953146 -0.194708
Ta 2.39775 1.15536 7.89766 1.566886 -5.944045 0.931194
Ta 5.33276 1.28983 7.19797 -1.126761 0.854886 -2.020746
Ta 7.89352 0.43228 6.56287 1.13823 0.267818 2.364431
Ta 8.88305 1.54913 9.09168 1.934009 3.681926 -0.69568
Ta 6.00124 2.16677 9.5598 8.252345 -1.117748 2.215338
Ta 2.66739 3.83317 7.06559 2.190193 -4.842621 2.418064
Ta 0.44413 5.53507 7.53921 0.172202 -0.843263 -0.144565
Ta 6.07444 4.29758 7.92983 -1.04507 0.569502 -0.853121
Ta 8.61236 4.26866 6.45192 0.842947 -0.703065 0.93539
Ta 10.50987 4.11989 8.35507 0.547985 -0.173489 -1.269773
Ta 2.02897 8.56787 8.24972 -1.223362 -0.887987 -0.332769
Ta 3.57963 5.79304 6.48017 2.842291 5.01202 -1.423259
Ta 6.53156 8.37515 5.75214 -0.50131 -0.78674 -2.188556
Ta 4.51454 9.02305 9.28712 -1.887242 0.583318 -0.321074
Ta 8.34047 6.94108 8.77392 2.702214 0.628662 0.365051
Ta 6.01989 7.16828 7.91506 -2.736883 -1.03701 0.87708
Ta 11.52313 8.08118 8.00297 0.861961 -0.750437 -2.832105
Ta 9.87066 9.68884 9.34964 -0.418705 -1.344113 0.080437
Ta 2.69897 11.01376 6.90606 0.624985 0.222953 -0.025436
Ta 5.56553 10.9604 7.05448 1.478972 -0.881736 -1.62077
Ta 6.91858 9.87487 9.3601 -0.933279 -1.508382 -2.062547
Ta 7.56671 12.23671 9.78063 -0.406385 -0.308972 0.183521
Ta 10.22294 11.87342 7.79903 -1.175658 -1.688479 1.642029
Ta 0.04509 10.83657 8.74612 1.380926 -0.290325 -0.323702
Ta 0.94632 0.06721 10.62363 1.061812 0.946373 0.815892
Ta 3.83384 2.56871 9.64718 -1.450486 1.088741 1.78581
Ta 4.91898 0.74942 12.23402 2.069575 0.652415 -1.682263
Ta 10.35682 1.29618 11.60881 -1.007516 -0.380767 -0.681798
Ta 12.25089 0.25724 0.5674 -1.167993 -0.553636 -1.082113
Ta 12.05792 1.27062 8.79257 -1.958821 -0.199606 3.512891
Ta 0.94154 6.36726 9.79464 -0.470327 -1.562595 2.388469
Ta 1.55131 2.94376 9.49017 -5.482202 3.713318 2.157258
Ta 2.83736 5.28335 12.23429 0.21999 -0.856343 -0.328898
Ta 3.28912 5.72925 9.20121 2.590913 0.102617 0.278337
Ta 5.23966 4.63128 11.01018 -0.510883 -1.107745 -0.843113
Ta 8.09196 3.41706 12.13822 -0.502547 -2.144772 0.04882
Ta 8.1563 4.57839 10.05093 0.383882 0.414866 -3.808578
Ta 10.79442 4.02679 10.93553 1.752466 -1.881501 1.268269
Ta 2.71931 8.02403 11.22143 2.049893 -0.963189 1.387113
Ta 5.73731 7.44013 11.32002 -4.676222 3.883048 -2.762461
Ta 8.16217 8.96831 11.31638 0.374044 -1.476354 1.757164
Ta 10.92094 6.50569 10.08481 -2.942535 0.663572 0.583517
Ta 0.13295 8.72748 10.50938 -1.244418 2.69593 0.1167
Ta 2.76073 10.72733 11.03757 0.159817 -0.598944 -1.675276
Ta 4.565 12.20225 9.16074 -0.475524 -0.325595 2.074182
Ta 3.333 11.65103 0.9196 -2.017399 0.539865 -1.533111
Ta 5.52052 10.58245 11.86999 -0.929433 -0.112136 -1.59182
Ta 7.97547 11.45742 0.05805 -0.0746 0.038856 -1.899211
Ta 11.12836 11.17255 11.09073 -0.284488 0.783851 1.570373
