100
Lattice="12.6055002213 0.0 0.0 0.0 12.6055002213 0.0 0.0 0.0 12.6055002213" Properties=species:S:1:pos:R:3:forces:R:3 energy=-1121.31506 stress="6315.33 3551.01 1290.84 3551.01 7373.36 -1793.4699999999998 1290.84 -1793.4699999999998 -4190.5599999999995"
Ta 0.64937 3.12625 0.43144 -0.384771 0.95129 0.165479
Ta 1.36715 0.72175 2.1191 -0.396084 1.361974 -0.172418
Ta 4.5846 1.15642 2.6142 -0.373595 0.78336 -1.848167
Ta 3.4656 2.34361 0.38597 -2.224767 -1.381119 -1.370954
Ta 7.88853 1.1719 1.55114 -0.598212 -0.078923 1.145428
Ta 10.07282 2.82479 1.63047 1.639511 -1.074148 -1.081096
Ta 10.53174 0.56802 2.94785 0.257895 1.267816 1.941643
Ta 2.10362 6.2679 1.6589 0.701345 0.454084 2.496936
Ta 5.6154 3.59317 1.03035 0.195919 -1.236583 -0.019497
Ta 3.32731 3.74082 2.62776 -1.283076 0.780111 0.884303
Ta 4.82978 6.12805 1.02771 1.04951 2.209193 2.462833
Ta 7.60239 4.46941 2.24663 1.036576 0.558243 2.859549
Ta 12.48993 4.97942 2.67215 -0.349711 -0.000505 0.40415
Ta 9.84709 6.20394 2.82647 -0.257749 1.429134 0.922074
Ta 10.38504 5.10677 0.57401 -0.209053 1.4898 -1.696587
Ta 2.12734 8.88431 2.41071 -0.896766 0.496609 1.485094
Ta 4.37717 9.21766 1.21522 -0.870196 -1.493612 0.07125
Ta 7.07182 9.00281 1.02655 0.183737 -1.129029 -0.559981
Ta 7.71788 6.33342 0.33272 -0.30082 1.581148 -1.075768
Ta 12.44465 6.65378 0.30277 0.556355 -0.191302 -1.493292
Ta 12.09046 8.23945 2.26765 -0.509885 1.361164 -0.650694
Ta 9.81566 8.34073 0.27729 0.6859 1.115843 0.637478
Ta 0.91684 11.16462 0.54206 0.073874 -1.819993 0.221407
Ta 5.69432 11.50075 1.29392 1.279331 1.42035 2.206812
Ta 10.71239 11.30092 1.18755 -0.759539 -2.842687 -0.44627
Ta 0.12647 0.57355 5.6744 1.485357 -0.339908 0.72473
Ta 2.40387 1.53268 4.75274 0.971096 -0.38073 0.869134
Ta 6.4354 2.09058 4.44464 1.8115 0.323829 -0.954613
Ta 10.29448 1.87908 6.14933 -0.973544 0.673823 0.524211
Ta 12.13409 2.64826 3.96133 1.041975 -0.146906 -0.101053
Ta 1.89139 4.2711 5.14514 -1.126257 1.765095 -1.172303
Ta 4.29285 3.26764 5.49838 1.359585 0.954058 -0.894642
Ta 6.22054 4.99782 4.76901 -0.57103 0.193676 0.659475
Ta 8.73015 5.75307 5.41647 0.977001 1.137808 0.707847
Ta 9.46292 3.6411 4.00924 0.208171 -0.619736 1.487252
Ta 11.80799 5.28602 5.31887 -1.14111 -1.708079 1.708749
Ta 1.42351 7.04153 5.51044 0.442962 1.999421 -1.932131
Ta 3.99608 6.77694 4.00068 0.020115 -0.082585 -0.562723
Ta 3.50684 9.23442 5.21977 0.277684 0.652346 0.809939
Ta 6.82787 7.1376 3.15953 0.461297 -1.023286 -0.200358
Ta 9.15017 9.16521 3.22539 0.975528 -0.406877 -2.361923
Ta 9.03229 9.22399 5.76536 -0.96211 0.660671 1.97306
Ta 11.42908 7.93297 4.71336 -1.075725 2.179405 -1.299081
Ta 0.05087 11.06881 3.63544 0.18806 -0.894103 -2.497085
Ta 0.61823 10.14934 5.99785 0.964288 -1.323025 0.615744
Ta 2.87244 11.55729 3.56061 -0.950735 -1.383789 -0.752604
Ta 6.21349 9.52465 3.78915 -1.000365 1.509307 0.554842
Ta 5.15602 12.31549 4.62675 0.565237 -0.704465 1.119632
Ta 8.08827 11.62648 3.35101 -0.339071 0.461047 0.284645
Ta 10.68985 11.76775 5.34052 -2.452377 -2.887406 0.054989
Ta 0.14268 2.96019 7.28952 -1.17741 0.302926 -1.013001
Ta 1.79625 1.2317 8.73242 1.145361 -3.820996 -0.45811
Ta 5.07039 1.39926 7.46358 -0.781338 0.724617 -1.541559
Ta 7.57216 0.49788 6.56353 0.962384 0.05587 -0.04513
Ta 9.27827 2.61852 8.92732 0.176007 -0.879678 -0.926458
Ta 6.54771 2.47044 9.38651 2.190569 0.166399 1.077573
Ta 2.76284 3.40149 7.77645 3.137421 -0.183358 -0.704336
Ta 1.46964 5.59388 7.81661 -3.887251 -0.228325 -0.342894
Ta 5.28247 4.64737 8.03918 0.338155 -1.923057 0.116762
Ta 7.44449 3.18893 6.73322 1.141594 1.207491 -0.292546
Ta 11.12935 5.21434 8.64857 -1.612825 -2.999306 -1.714386
Ta 1.54461 8.15093 8.61321 0.347763 2.086893 -0.257285
Ta 3.74639 6.51293 6.87702 0.959722 -0.501443 -1.452222
Ta 6.16432 8.04946 6.35417 0.023322 -2.311879 -2.364886
Ta 4.17774 8.81779 8.33178 -1.45671 1.390508 1.192928
Ta 8.79674 7.34098 7.76356 0.744674 0.017978 0.615727
Ta 6.3995 6.81915 8.95492 -2.56268 0.245528 -0.18037
Ta 11.65865 7.47829 7.15549 -0.141642 0.63044 2.199066
Ta 10.36878 9.3845 9.0403 -0.66872 0.230975 -0.20666
Ta 3.44367 12.01539 7.00233 -1.966426 -2.282219 -0.555493
Ta 6.18022 10.72879 6.38769 -0.159595 0.636574 0.422497
Ta 6.60979 9.53788 8.62428 1.893523 1.309962 1.811685
Ta 7.82809 11.91798 9.44419 -1.75495 0.501787 1.526707
Ta 9.83162 12.15132 7.88212 0.675577 0.0338 -0.256919
Ta 12.33473 11.37557 8.23941 1.476837 0.086277 1.652827
Ta 1.26867 0.5664 11.43089 0.552369 0.109749 -1.014297
Ta 4.11323 2.51574 10.31659 -0.216484 0.602173 -0.337403
Ta 6.1981 1.3171 12.07577 -0.840924 -1.268238 -1.122831
Ta 8.93316 0.96241 11.49866 0.200771 0.591493 -0.447815
Ta 11.51202 0.95161 12.55636 0.023759 0.436473 0.983974
Ta 11.74771 1.34839 9.48403 -0.672837 0.114932 -0.4313
Ta 0.37088 6.14613 10.23785 1.469982 0.175809 2.274858
Ta 1.53343 3.45239 10.16056 -2.401632 0.95373 1.427778
Ta 2.97984 4.88656 12.27482 -1.163376 -0.933805 -0.832442
Ta 3.23113 5.88226 9.89191 1.644345 0.515055 -2.001086
Ta 5.83202 4.76093 11.09154 -1.265112 -0.209543 -0.313576
Ta 8.18149 3.7694 12.32031 -0.908072 -2.871898 -1.645014
Ta 8.28389 5.18304 9.86813 1.06209 -0.729605 -0.590042
Ta 10.60165 3.38032 11.14631 2.294652 0.864636 -1.210164
Ta 2.16602 8.04842 12.06324 1.617599 0.103075 -0.814791
Ta 5.19763 7.5131 11.34985 -0.346409 1.752742 -0.487937
Ta 7.92875 8.24785 10.61624 0.728867 1.077493 1.692555
Ta 10.42049 6.95313 10.57826 -0.286476 0.160363 0.370268
Ta 12.38682 9.14199 11.43376 -0.594871 0.767297 -0.960584
Ta 2.2479 10.73902 9.80504 -0.028268 0.335889 0.421595
Ta 4.91854 12.45236 9.55661 -0.382663 -1.868957 -0.192626
Ta 3.60604 12.29562 12.33442 -0.6243 -0.490257 0.799831
Ta 5.45536 10.4337 11.30531 0.355343 -0.806764 -0.469902
Ta 8.0691 11.11452 12.46882 0.894574 0.749785 -0.70888
Ta 10.68626 11.50854 10.77779 0.440455 -1.251201 0.450872
