ITEM: TIMESTEP
0
ITEM: NUMBER OF ATOMS
128
ITEM: BOX BOUNDS pp pp pp
0.0000000000000000e+00 1.2640000000000001e+01
0.0000000000000000e+00 1.2640000000000001e+01
0.0000000000000000e+00 1.2640000000000001e+01
ITEM: ATOMS id type x y z vx vy vz
1 1 0 0 0 -0.10931319589708741 0.25004056168127275 1.1323753424364345
2 1 1.5800000000000001 1.5800000000000001 1.5800000000000001 -0.52731763800497466 0.59350815695672043 -0.62819256622305553
3 1 3.1600000000000001 0 0 1.7288974728651911 -1.4799538462072159 0.45904150916711589
4 1 4.7400000000000002 1.5800000000000001 1.5800000000000001 -0.83019709929562224 -0.91960737892488997 1.3936259262322808
5 1 6.3200000000000003 0 0 -1.2561780425543509 0.85645272950606588 -0.8027298789501297
6 1 7.9000000000000004 1.5800000000000001 1.5800000000000001 1.2139287108529153 -0.9069353446024061 -0.82328607428466571
7 1 9.4800000000000004 0 0 -0.21223153223763741 0.03811910437871769 -1.9307608260295135
8 1 11.06 1.5800000000000001 1.5800000000000001 -1.474417114868102 -0.78894250287301748 1.6840891183123572
9 1 0 3.1600000000000001 0 0.68120244838824939 0.098818690483774729 -1.9402795986362866
10 1 1.5800000000000001 4.7400000000000002 1.5800000000000001 1.8352273635106364 0.27845896126495612 0.54754412651293694
11 1 3.1600000000000001 3.1600000000000001 0 1.8706939582152498 -1.4005751119079994 -0.43350830163989151
12 1 4.7400000000000002 4.7400000000000002 1.5800000000000001 -0.50566386061319135 1.883782741334538 -1.9370443349432254
13 1 6.3200000000000003 3.1600000000000001 0 -1.8428834199888877 -0.74542707329027369 -0.21182451348024547
14 1 7.9000000000000004 4.7400000000000002 1.5800000000000001 -0.3993764564524242 -1.0569820743354885 -0.085767523552282815
15 1 9.4800000000000004 3.1600000000000001 0 0.57208091827078045 -0.75739142139957116 -2.0412594285708536
16 1 11.06 4.7400000000000002 1.5800000000000001 -0.72824779811211693 -1.0538307054441658 1.0728948558586475
17 1 0 6.3200000000000003 0 -1.3834330066048417 -1.9002285827121344 -1.4883633500449125
18 1 1.5800000000000001 7.9000000000000004 1.5800000000000001 1.7447273283833096 1.5553476864178126 1.4136710478476966
19 1 3.1600000000000001 6.3200000000000003 0 0.64108753720193246 -0.6293641163373499 1.7408354423296704
20 1 4.7400000000000002 7.9000000000000004 1.5800000000000001 -0.64392187963882508 1.4987983942850676 -0.55475033973440813
21 1 6.3200000000000003 6.3200000000000003 0 0.73022053558606692 -0.97139573338053431 -0.25986142546499019
22 1 7.9000000000000004 7.9000000000000004 1.5800000000000001 1.4168469582307546 -1.7117792000130028 1.6052351992661782
23 1 9.4800000000000004 6.3200000000000003 0 0.018556897109708811 1.3898724170511494 1.8756968622187873
24 1 11.06 7.9000000000000004 1.5800000000000001 -2.0780230554831101 0.48913613148590462 -1.3616235849572824
25 1 0 9.4800000000000004 0 -0.82705849583465996 0.0245064124193329 0.41694737172623381
26 1 1.5800000000000001 11.06 1.5800000000000001 -1.5725238377978279 0.16577713239273964 -0.36999802905347551
27 1 3.1600000000000001 9.4800000000000004 0 0.75671185622708459 1.9213227377298783 -0.64927439332311054
28 1 4.7400000000000002 11.06 1.5800000000000001 -0.80765791432626621 -0.68871673891628205 0.47812654757141793
29 1 6.3200000000000003 9.4800000000000004 0 0.0019099482730463024 0.56211258028532929 1.7256179136454788
30 1 7.9000000000000004 11.06 1.5800000000000001 -0.42040086602365517 0.26031375099510218 -1.5508519669562868
31 1 9.4800000000000004 9.4800000000000004 0 -1.3447187130932192 -0.80158338353292091 0.43949345065892581
32 1 11.06 11.06 1.5800000000000001 -1.2493386779233431 0.23754310329441194 -1.6868294573432212
33 1 0 0 3.1600000000000001 1.0816039131751136 -1.1999503775730223 0.06564688314400581
34 1 1.5800000000000001 1.5800000000000001 4.7400000000000002 0.29912933762078447 -1.396133699689047 -1.50373136569082
35 1 3.1600000000000001 0 3.1600000000000001 1.7804330109324065 -0.090444259684550235 1.2180297731094849
36 1 4.7400000000000002 1.5800000000000001 4.7400000000000002 1.0880015705337043 -1.2724195809834378 1.5185713624610158
37 1 6.3200000000000003 0 3.1600000000000001 -0.72662778910083947 -1.7220901790090333 -0.33177595524549691
38 1 7.9000000000000004 1.5800000000000001 4.7400000000000002 0.81475549238882117 1.1094332944711609 -1.0678371035715346
39 1 9.4800000000000004 0 3.1600000000000001 -2.0636954845778632 -1.7989234486379042 -0.49378145667877177
40 1 11.06 1.5800000000000001 4.7400000000000002 1.4152196952483653 -1.1654372189256412 -1.6973579033043731
41 1 0 3.1600000000000001 3.1600000000000001 1.7160413316795757 1.6277813808138446 -0.63605343621658006
42 1 1.5800000000000001 4.7400000000000002 4.7400000000000002 -1.3175420935266833 1.6536323032929725 -0.53629232167727503
43 1 3.1600000000000001 3.1600000000000001 3.1600000000000001 -0.87630729420118714 1.2022654989402064 0.98607882112697887
44 1 4.7400000000000002 4.7400000000000002 4.7400000000000002 -1.6335746430352773 -1.7425367779557726 -1.2585387895574567
45 1 6.3200000000000003 3.1600000000000001 3.1600000000000001 -1.4933326564155562 0.10613272165578991 1.4334240547001025
46 1 7.9000000000000004 4.7400000000000002 4.7400000000000002 -1.3571362516095566 1.7075323557304249 0.74253753385576571
47 1 9.4800000000000004 3.1600000000000001 3.1600000000000001 -0.89660811041152888 -1.2594341598920971 0.58364351096768363
48 1 11.06 4.7400000000000002 4.7400000000000002 0.24285714755565507 1.2926993631537684 -1.4029444516756313
49 1 0 6.3200000000000003 3.1600000000000001 1.5262552809344239 -0.020553367014748671 0.26761670302640095
50 1 1.5800000000000001 7.9000000000000004 4.7400000000000002 1.8707405940679009 -0.6167663364021958 -1.724070046034526
51 1 3.1600000000000001 6.3200000000000003 3.1600000000000001 -0.63790868831629477 -1.0502842020389311 0.90236846027904494
52 1 4.7400000000000002 7.9000000000000004 4.7400000000000002 0.028676201656474141 0.10541110277053686 1.2604972757281028
53 1 6.3200000000000003 6.3200000000000003 3.1600000000000001 -1.2159419182344817 -0.36324260321033675 -0.83036343374685817
54 1 7.9000000000000004 7.9000000000000004 4.7400000000000002 -1.1192545129709808 -1.2617906037787416 0.82996385970728859
55 1 9.4800000000000004 6.3200000000000003 3.1600000000000001 -0.051621406097785212 1.4948838553017472 1.4004166452765079
56 1 11.06 7.9000000000000004 4.7400000000000002 -0.16329621342547659 1.5619236979379629 0.35369296260437028
57 1 0 9.4800000000000004 3.1600000000000001 -0.53822131413259799 0.65035813723352887 -1.5763200916828102
58 1 1.5800000000000001 11.06 4.7400000000000002 -1.4478924656721672 -1.3211782844344826 -1.0219661319772959
59 1 3.1600000000000001 9.4800000000000004 3.1600000000000001 0.52499308884717477 0.87380721238767978 -0.038767174162492694
60 1 4.7400000000000002 11.06 4.7400000000000002 -1.98200771422009 0.25053030030039952 1.3931977637885016
61 1 6.3200000000000003 9.4800000000000004 3.1600000000000001 -0.91570223251718486 0.61934489809861681 -0.76677718652977145
62 1 7.9000000000000004 11.06 4.7400000000000002 0.58021747442505001 0.50006050806063762 -1.0705611506557915
63 1 9.4800000000000004 9.4800000000000004 3.1600000000000001 -0.98080149591914134 -1.5845817054512212 -0.58908046040772422
64 1 11.06 11.06 4.7400000000000002 0.90793069148272065 0.95784532876843054 1.6618794313876819
65 1 0 0 6.3200000000000003 -1.759496288596631 -2.0156706190372664 -0.97542486487438218
66 1 1.5800000000000001 1.5800000000000001 7.9000000000000004 0.38523127837199905 -0.8747563761651348 -1.965952970476365
67 1 3.1600000000000001 0 6.3200000000000003 1.0531253700243448 -1.6259520936515586 1.4925782090747841
68 1 4.7400000000000002 1.5800000000000001 7.9000000000000004 0.22795558878889774 1.9039595051747444 -1.5602928609737399
69 1 6.3200000000000003 0 6.3200000000000003 1.5919327780627941 -0.053574349102633805 -0.78611800118024733
70 1 7.9000000000000004 1.5800000000000001 7.9000000000000004 1.8139212348648499 0.8460095756964221 -0.97609585070724603
71 1 9.4800000000000004 0 6.3200000000000003 -0.93741582687106118 -1.6762733681722444 0.58565967327776458
72 1 11.06 1.5800000000000001 7.9000000000000004 0.31297051760807687 0.096356387609645294 0.51197602260551156
73 1 0 3.1600000000000001 6.3200000000000003 1.7552916248095194 -0.22034966036340264 1.7367473499070385
74 1 1.5800000000000001 4.7400000000000002 7.9000000000000004 1.1874732165527231 0.78758676969549168 1.4333006555399521
75 1 3.1600000000000001 3.1600000000000001 6.3200000000000003 -1.5806628137981786 -1.1323451501477115 0.5511308004765394
76 1 4.7400000000000002 4.7400000000000002 7.9000000000000004 -1.0427362798373208 1.5756110729537296 -0.73881710653607824
77 1 6.3200000000000003 3.1600000000000001 6.3200000000000003 0.65726913701842515 0.34748928874942747 1.0740410872140962
78 1 7.9000000000000004 4.7400000000000002 7.9000000000000004 -1.1424260979913308 -0.16610707537293234 0.80230727369145782
79 1 9.4800000000000004 3.1600000000000001 6.3200000000000003 -0.88414465049096191 0.98835841689436932 0.41651306873745364
80 1 11.06 4.7400000000000002 7.9000000000000004 1.7052274923377027 -0.79058905596277629 1.9062222648375118
81 1 0 6.3200000000000003 6.3200000000000003 0.066176858851609927 0.73200710654705048 -0.17899549347670365
82 1 1.5800000000000001 7.9000000000000004 7.9000000000000004 -3.6006953617881445e-05 -0.26269871300093273 -0.67468535104168437
83 1 3.1600000000000001 6.3200000000000003 6.3200000000000003 0.48893772740513936 0.62765328002601584 -0.60655676324012064
84 1 4.7400000000000002 7.9000000000000004 7.9000000000000004 1.6333757467998744 -0.9153719375464644 0.84675822059389061
85 1 6.3200000000000003 6.3200000000000003 6.3200000000000003 -0.56552272649763302 0.082857161193792439 0.78159233534059436
86 1 7.9000000000000004 7.9000000000000004 7.9000000000000004 1.1833189662062973 -1.2860751250024069 -0.8390422803769747
87 1 9.4800000000000004 6.3200000000000003 6.3200000000000003 0.54275625292704899 0.5362602660235628 1.6024651083008195
88 1 11.06 7.9000000000000004 7.9000000000000004 1.6133523852420837 1.286108749050175 -0.58839198636207979
89 1 0 9.4800000000000004 6.3200000000000003 -0.0079962223918788756 1.443607771498292 0.38644759460944939
90 1 1.5800000000000001 11.06 7.9000000000000004 -0.74238403973019296 0.46479292899477931 -0.031778512079997275
91 1 3.1600000000000001 9.4800000000000004 6.3200000000000003 1.6466883852680785 -0.33586461125311096 1.0242107482456062
92 1 4.7400000000000002 11.06 7.9000000000000004 0.86415796211574147 -1.4706785130853095 0.9303815579127146
93 1 6.3200000000000003 9.4800000000000004 6.3200000000000003 0.77996673851049381 -1.7594909655934503 0.72015339532804956
94 1 7.9000000000000004 11.06 7.9000000000000004 -1.0303895236745577 1.8619635923296474 -2.0216123456557891
95 1 9.4800000000000004 9.4800000000000004 6.3200000000000003 1.7838717625257681 1.9131519177427589 1.5025087136673605
96 1 11.06 11.06 7.9000000000000004 1.5492882017226446 0.53834063033890311 0.7011826798053844
97 1 0 0 9.4800000000000004 0.91478209039427638 0.54119585572040441 0.86766836481050036
98 1 1.5800000000000001 1.5800000000000001 11.06 0.96871139810279017 -1.6733882231754356 1.2550043327558453
99 1 3.1600000000000001 0 9.4800000000000004 1.5182907658156648 1.6134883873564687 -1.7519579648819781
100 1 4.7400000000000002 1.5800000000000001 11.06 0.53316997515088804 -1.1760193116125215 -0.2207623096209517
101 1 6.3200000000000003 0 9.4800000000000004 -0.42303763905792696 -0.21975060928013729 -0.15032291912473558
102 1 7.9000000000000004 1.5800000000000001 11.06 0.13902432651464913 1.6514626459149659 -1.1357583974112089
103 1 9.4800000000000004 0 9.4800000000000004 -2.044622428494224 -0.046651863501033737 -0.0080134746540089629
104 1 11.06 1.5800000000000001 11.06 -0.68819613324031403 -1.3886287066604779 1.0943609355880921
105 1 0 3.1600000000000001 9.4800000000000004 -2.0347238124254603 -1.0551171524054583 -0.62288284679588202
106 1 1.5800000000000001 4.7400000000000002 11.06 0.19993221608793568 1.1577929886854277 -1.2483405765022186
107 1 3.1600000000000001 3.1600000000000001 9.4800000000000004 1.0389464619177025 -0.82442413254154712 -0.87467672221208181
108 1 4.7400000000000002 4.7400000000000002 11.06 1.0792028116228751 -1.7041914144745447 1.609713939095496
109 1 6.3200000000000003 3.1600000000000001 9.4800000000000004 1.2070921687570981 -0.24058736943749412 0.33568933003163559
110 1 7.9000000000000004 4.7400000000000002 11.06 -1.1259456471838576 1.8484276599663418 1.616194383396846
111 1 9.4800000000000004 3.1600000000000001 9.4800000000000004 -1.5036709440426639 1.6952526797794174 1.5836021334557664
112 1 11.06 4.7400000000000002 11.06 1.8491074503176608 -1.5602513073603708 1.8509781864631567
113 1 0 6.3200000000000003 9.4800000000000004 -1.962732213145274 1.4201875769845012 1.2888586419149703
114 1 1.5800000000000001 7.9000000000000004 11.06 1.3106451449908354 -1.3175950528132727 -0.57520140166414191
115 1 3.1600000000000001 6.3200000000000003 9.4800000000000004 -0.62089811678036588 1.9037750661394894 -0.67505245134183689
116 1 4.7400000000000002 7.9000000000000004 11.06 -0.6039888818662017 -0.83043754283787941 1.670725581425208
117 1 6.3200000000000003 6.3200000000000003 9.4800000000000004 0.78539500627139514 1.8010452384066293 -1.7038170143614395
118 1 7.9000000000000004 7.9000000000000004 11.06 0.41689974464888702 1.357888743553713 -1.669528738097078
119 1 9.4800000000000004 6.3200000000000003 9.4800000000000004 -0.99485914821089683 1.2548927364633833 0.79824478821366418
120 1 11.06 7.9000000000000004 11.06 0.091992188809395789 0.23356471489076766 -0.80477967971872821
121 1 0 9.4800000000000004 9.4800000000000004 -1.5069884880696038 1.728792071208783 -0.60507918555264772
122 1 1.5800000000000001 11.06 11.06 1.3901850198839378 0.49814509782361299 -1.3820028030672162
123 1 3.1600000000000001 9.4800000000000004 9.4800000000000004 -0.63880976365495623 -0.25422831829586062 -1.776623448560875
124 1 4.7400000000000002 11.06 11.06 0.010807881903275538 -1.3243933524336042 0.73388785898975217
125 1 6.3200000000000003 9.4800000000000004 9.4800000000000004 -1.4440415701253408 -0.36089323143520591 -1.1955447606987355
126 1 7.9000000000000004 11.06 11.06 -0.21148639222579377 0.606365457961201 0.26867255758443553
127 1 9.4800000000000004 9.4800000000000004 9.4800000000000004 -1.4299628518115688 1.1387962338374513 -1.718217293847432
128 1 11.06 11.06 11.06 1.1721287554361892 -2.0599056058112479 0.78221287925921845
