# exaStamp parity counterpart of LAMMPS examples/snap (InP)
variable nsteps index 100
units           metal
boundary        p p p

lattice         diamond 5.83
region          box block 0 4 0 4 0 4
create_box      2 box
create_atoms    1 box basis 5 2 basis 6 2 basis 7 2 basis 8 2

mass 1 114.76
mass 2 30.98

include InP_JCPA2020.snap

thermo          1
thermo_style    custom step temp pe ke etotal press pxx pyy pzz pxy pxz pyz
thermo_modify   norm yes format float %.16g

timestep 0.5e-3
neighbor 1.0 bin
neigh_modify once no every 1 delay 0 check yes

velocity all create 300.0 4928459 loop geom
# exact initial state (positions+velocities) for exaStamp, converted by lmp2xyz.py
write_dump all custom init.dump id type x y z vx vy vz modify sort id format float %.17g
fix 1 all nve
run             ${nsteps}
