512
Lattice="2.3320000000000000e+01 0 0 0 2.3320000000000000e+01 0 0 0 2.3320000000000000e+01" Properties=species:S:1:pos:R:3:velo:R:3
In 0 0 0 0.11317160114088051 0.46729520590424306 1.5515463474733611
In 0 2.915 2.915 -1.5352922350263387 0.68985157319929447 -0.49193261993101889
In 2.915 0 2.915 -2.3879984773375584 -1.1215295621855534 0.39864701469714658
In 2.915 2.915 0 0.3157225012933913 0.13093139482811819 2.4584152768569227
P 1.4575 1.4575 1.4575 -0.52880104460332455 -0.24144167728409621 -1.6438517008231621
P 1.4575 4.3725000000000005 4.3725000000000005 3.7965394718963488 4.2094412391017189 -3.4888844510452506
P 4.3725000000000005 1.4575 4.3725000000000005 -1.6358515725874374 3.2953692189041792 1.0529902787613192
P 4.3725000000000005 4.3725000000000005 1.4575 0.85953938146927089 -3.8076687916563281 -3.6444004128315877
In 5.8300000000000001 0 0 1.6022685157643988 0.057571357430346477 0.19949578811482388
In 5.8300000000000001 2.915 2.915 -0.76492014194186986 0.73038649572263403 -0.14335830502464234
In 8.745000000000001 0 2.915 -0.6640188638212049 1.8392950718507339 0.19934559603487687
In 8.745000000000001 2.915 0 -1.8105466664741854 -0.28653742652505165 2.0771135496711413
P 7.2874999999999996 1.4575 1.4575 2.6936214840158006 -0.46005572219704327 3.3428522343605436
P 7.2874999999999996 4.3725000000000005 4.3725000000000005 -1.1177895492385479 2.5222066251822008 -4.5363789207283416
P 10.202500000000001 1.4575 4.3725000000000005 -4.4148098346227975 1.274611440368171 -4.1531180054307741
P 10.202500000000001 4.3725000000000005 1.4575 3.3686053186331031 -4.3532551828073407 0.49816879915214196
In 11.66 0 0 -1.5388641036071489 1.1838446497353785 -0.15322571047270958
In 11.66 2.915 2.915 2.5035256596858542 0.75771361420225414 0.15174393251488147
In 14.574999999999999 0 2.915 -0.90993742524621479 -0.38796435343820102 2.2213571039581206
In 14.574999999999999 2.915 0 -0.63162133578808199 1.6070538966566619 0.87396037582331432
P 13.1175 1.4575 1.4575 -4.6501498868756928 -3.0360071636375383 -3.866284442312041
P 13.1175 4.3725000000000005 4.3725000000000005 3.4861946535116606 1.2997456520384667 0.84481462997563239
P 16.032499999999999 1.4575 4.3725000000000005 4.3908917701470571 4.2254241817602569 3.0274886599445536
P 16.032499999999999 4.3725000000000005 1.4575 2.8216174131768605 -4.3504595542849946 -1.0543959870818786
In 17.490000000000002 0 0 -0.37939275051071647 -1.0781610342305803 -2.0670291094433932
In 17.490000000000002 2.915 2.915 -1.8419299834162934 1.8599524768100397 -0.63838205961875305
In 20.405000000000001 0 2.915 -0.21073716776946397 -1.136301284184817 -0.72026567723158952
In 20.405000000000001 2.915 0 -1.8926811945351592 1.2976492938267243 0.93632994230272693
P 18.947500000000002 1.4575 1.4575 -1.7482657053446669 -2.747657613134006 -1.7369865878980335
P 18.947500000000002 4.3725000000000005 4.3725000000000005 -3.2011393524626484 3.475454684720606 -1.065051490131403
P 21.862500000000001 1.4575 4.3725000000000005 2.9163925566788005 -3.5337649680735885 -1.6109681096493409
P 21.862500000000001 4.3725000000000005 1.4575 1.7872706578915021 -2.0564136150863526 -4.1623020979243757
In 0 5.8300000000000001 0 -1.7178656461437172 -1.1511278232633952 2.2833766716419035
In 0 8.745000000000001 2.915 2.0850139539092947 -2.0197495383356361 0.30552656286488755
In 2.915 5.8300000000000001 2.915 0.016361552835288725 2.549432124650763 1.6865627209976044
In 2.915 8.745000000000001 0 -1.9579766716528157 -1.6045792739921787 2.4059061706221176
P 1.4575 7.2874999999999996 1.4575 -4.2440536332178853 -2.3165585366641634 1.7721421337221466
P 1.4575 10.202500000000001 4.3725000000000005 0.2158494345525126 1.8240129498835689 -2.4214249007574002
P 4.3725000000000005 7.2874999999999996 4.3725000000000005 -0.93121310766216037 2.7128690590873905 -3.6266141224943649
P 4.3725000000000005 10.202500000000001 1.4575 3.9552220294809759 1.5590516920334507 0.2267649802907955
In 5.8300000000000001 5.8300000000000001 0 -1.0608472333698098 0.33533401728215773 -2.0631116623824455
In 5.8300000000000001 8.745000000000001 2.915 0.17383578312787051 1.1893319053742155 1.2814973401463665
In 8.745000000000001 5.8300000000000001 2.915 0.85150387118080606 1.708153353821046 0.26979844689382199
In 8.745000000000001 8.745000000000001 0 1.9528289333817448 0.691381002359574 -0.0061451873684514151
P 7.2874999999999996 7.2874999999999996 1.4575 -3.2412478119466388 -0.79345547666970195 1.258392707232828
P 7.2874999999999996 10.202500000000001 4.3725000000000005 -1.5633478734987882 -1.3100329031114031 -2.1400404967177464
P 10.202500000000001 7.2874999999999996 4.3725000000000005 2.9481755192314019 -3.2831403208786285 -2.5211064654161266
P 10.202500000000001 10.202500000000001 1.4575 -4.0338009555473642 -2.2166816313777713 0.96449898088050079
In 11.66 5.8300000000000001 0 2.2335546138530837 -2.2103958242479242 -1.0318858046624835
In 11.66 8.745000000000001 2.915 0.64544192993452809 -1.4830278766819509 -2.489230533827401
In 14.574999999999999 5.8300000000000001 2.915 -1.9427207724395188 -2.4358315315034416 -1.9866823171510302
In 14.574999999999999 8.745000000000001 0 1.6205367073179431 -0.5847404660589165 -1.2627388950990401
P 13.1175 7.2874999999999996 1.4575 -4.2936492542897238 -1.0046360765678497 -4.7293344055162869
P 13.1175 10.202500000000001 4.3725000000000005 -3.6964611310698201 -1.8656362379677132 -1.320686711219923
P 16.032499999999999 7.2874999999999996 4.3725000000000005 0.21800838426615723 -0.72147390194085914 -2.4146148577896756
P 16.032499999999999 10.202500000000001 1.4575 -4.0326515053307821 -2.3133491858057864 -2.5347300231094687
In 17.490000000000002 5.8300000000000001 0 0.99233319210177551 -1.9903255673382458 0.53536921662434811
In 17.490000000000002 8.745000000000001 2.915 -0.082741006841292153 1.4083902811360076 0.97366298745612034
In 20.405000000000001 5.8300000000000001 2.915 0.69014079904639314 -1.7651229483449176 -2.4273486934975739
In 20.405000000000001 8.745000000000001 0 0.38743616611518067 -0.061404536716808372 -2.0575427741797161
P 18.947500000000002 7.2874999999999996 1.4575 3.683921432129674 4.4470879715994087 0.75915433819172506
P 18.947500000000002 10.202500000000001 4.3725000000000005 3.7790393800798632 1.3175582472704501 -0.71879614618096477
P 21.862500000000001 7.2874999999999996 4.3725000000000005 -1.7650001253687788 -2.4786334628025211 -4.0543132404606048
P 21.862500000000001 10.202500000000001 1.4575 -3.7092692731897356 -3.5618300576469366 2.3782663718953581
In 0 11.66 0 0.74911768648246979 0.86174839102925049 -1.5571573553973501
In 0 14.574999999999999 2.915 -0.39975624206952309 -0.34449654923709511 1.4242168485690851
In 2.915 11.66 2.915 2.4213203173251525 1.1517243990269677 -0.30465023168797539
In 2.915 14.574999999999999 0 -1.4941613355985162 0.96727833604836311 1.6877703901790237
P 1.4575 13.1175 1.4575 3.3715981366750127 -2.5916557137351663 -0.90250490217666679
P 1.4575 16.032499999999999 4.3725000000000005 -1.4415461254825508 -2.5209138413665535 3.7120259811911072
P 4.3725000000000005 13.1175 4.3725000000000005 -0.95803494174806003 -1.525717498605013 3.5432264679589807
P 4.3725000000000005 16.032499999999999 1.4575 -1.1809485689489989 -0.84792237187018515 -1.6392797347177128
In 5.8300000000000001 11.66 0 1.9391886172036306 -1.5874568249259708 -2.361302558966738
In 5.8300000000000001 14.574999999999999 2.915 -1.1990144345524048 -1.6625975471959089 0.75886715574515151
In 8.745000000000001 11.66 2.915 2.5375260852472659 2.2460427327079464 1.9692678102908836
In 8.745000000000001 14.574999999999999 0 1.3507526582111142 -0.40999593160950726 0.1388183569250219
P 7.2874999999999996 13.1175 1.4575 -3.4746970128521988 -2.4477515027923262 0.46863902103327032
P 7.2874999999999996 16.032499999999999 4.3725000000000005 -0.42963319162024111 -3.2583882195613669 -3.9453025334443526
P 10.202500000000001 13.1175 4.3725000000000005 4.6203071138589378 -3.6708856127231515 4.2441612633728401
P 10.202500000000001 16.032499999999999 1.4575 2.7423376834985898 2.8630605150809525 -3.3708680266586737
In 11.66 11.66 0 -1.8942584251093042 0.0084634984168347558 2.0376829755648749
In 11.66 14.574999999999999 2.915 0.16198862124538055 -1.2151558324576399 0.50801872120525315
In 14.574999999999999 11.66 2.915 -1.4700250624899764 -1.9275006496448182 2.2658310842346738
In 14.574999999999999 14.574999999999999 0 -0.83271894800646884 1.1494995523047633 -2.3905892418232435
P 13.1175 13.1175 1.4575 2.4755231985731907 3.4872789586810238 3.5107475174003477
P 13.1175 16.032499999999999 4.3725000000000005 -2.3450998629571593 4.0624425120215184 1.3768709387063489
P 16.032499999999999 13.1175 4.3725000000000005 -4.4605341518109212 -0.30263243177493626 -1.0565631686589634
P 16.032499999999999 16.032499999999999 1.4575 -1.0586746121336941 -3.8301286964687513 -2.5262123770361851
In 17.490000000000002 11.66 0 0.67627255712120693 2.2130225790458056 1.8247714242921789
In 17.490000000000002 14.574999999999999 2.915 -0.74293697115754176 1.9993422898133535 1.7325236042748724
In 20.405000000000001 11.66 2.915 0.33367320991085536 -0.80345044251224607 -0.14322305793272747
In 20.405000000000001 14.574999999999999 0 -1.1130788508939329 0.11116884539534075 -1.8394830045269364
P 18.947500000000002 13.1175 1.4575 -0.081331490500203441 -3.1181168687345968 4.3225321248072301
P 18.947500000000002 16.032499999999999 4.3725000000000005 -1.9601210242112359 -0.65990908361918432 3.2849874148895974
P 21.862500000000001 13.1175 4.3725000000000005 -4.4988107120239755 -2.9060275633312194 -3.5403433528245993
P 21.862500000000001 16.032499999999999 1.4575 3.1936182287330808 -3.916457437262491 2.7074419418012328
In 0 17.490000000000002 0 -0.99037167730902487 -0.49043308905502919 -0.012481145930511656
In 0 20.405000000000001 2.915 2.555117256864416 0.31278822395057526 2.3435324703726375
In 2.915 17.490000000000002 2.915 0.74955103241707655 -1.9427378717333574 -1.6328759153068693
In 2.915 20.405000000000001 0 0.53779055525560915 -0.031898371808340736 -0.44626705694531249
P 1.4575 18.947500000000002 1.4575 -1.9999559019404756 -0.33073069291002216 2.3751568747610508
P 1.4575 21.862500000000001 4.3725000000000005 -2.5419670108143189 -4.0525629543699697 -3.499396102168145
P 4.3725000000000005 18.947500000000002 4.3725000000000005 -3.053117763233915 -3.6145339191490535 -0.011314718388430548
P 4.3725000000000005 21.862500000000001 1.4575 0.76973999483057032 1.3412728444810873 -0.16484638971853061
In 5.8300000000000001 17.490000000000002 0 -0.51463746785650355 0.64730201085912475 0.60650151366086835
In 5.8300000000000001 20.405000000000001 2.915 1.1121986453825607 0.085936275326426531 -2.2385699533009857
In 8.745000000000001 17.490000000000002 2.915 1.4956193971255634 -1.8218446434285247 -2.4582620148754577
In 8.745000000000001 20.405000000000001 0 0.37949529011445771 -2.3831994667477394 -0.07606621696460758
P 7.2874999999999996 18.947500000000002 1.4575 0.71551279558124137 2.4721702535966781 -0.92441167187519246
P 7.2874999999999996 21.862500000000001 4.3725000000000005 -0.78904773660487493 3.9825470425743346 -1.7583472880524349
P 10.202500000000001 18.947500000000002 4.3725000000000005 3.3690562131893791 3.2249296245391474 1.5188458015698072
P 10.202500000000001 21.862500000000001 1.4575 -2.4335119975252022 3.4037136829234269 -3.0564733348847168
In 11.66 17.490000000000002 0 -1.51765698003965 -0.50249374372035083 -0.96127639195971548
In 11.66 20.405000000000001 2.915 -1.0595542182776367 1.8915759000285186 1.2505942240133356
In 14.574999999999999 17.490000000000002 2.915 -0.54064620023016385 2.3348522847745299 1.6071643095079389
In 14.574999999999999 20.405000000000001 0 0.36847053943807107 -1.0531534492950301 -0.40540160427411825
P 13.1175 18.947500000000002 1.4575 -0.21182013278697945 -2.2917878514970376 0.66028483036148455
P 13.1175 21.862500000000001 4.3725000000000005 1.1396970751176811 -3.4505676896115509 -1.2286778038317152
P 16.032499999999999 18.947500000000002 4.3725000000000005 1.7105828531494462 0.18089549595855675 0.22004956532822989
P 16.032499999999999 21.862500000000001 1.4575 4.4281266628563287 -0.97074775052303197 1.7829184385765651
In 17.490000000000002 17.490000000000002 0 -1.6619881984368463 -0.17788308413995341 2.3512652040042861
In 17.490000000000002 20.405000000000001 2.915 -2.051819088776015 -0.084122001291555615 -0.53617722529224432
In 20.405000000000001 17.490000000000002 2.915 -1.2867424890251999 1.7446389338335038 -1.8686728115424278
In 20.405000000000001 20.405000000000001 0 0.50261439153781262 -1.1053959132681133 -0.81186304383138219
P 18.947500000000002 18.947500000000002 1.4575 -2.7470526052139999 -4.6789193770002706 2.224668154018469
P 18.947500000000002 21.862500000000001 4.3725000000000005 0.20435491882513795 2.7904605651211516 -0.38315429610544949
P 21.862500000000001 18.947500000000002 4.3725000000000005 0.17294612407528681 -0.87926449349873981 -4.1884296437190462
P 21.862500000000001 21.862500000000001 1.4575 1.837462991871617 -3.0471208980441982 3.4999548301883752
In 0 0 5.8300000000000001 -1.6455779110500677 -1.7827960813485786 -1.8716192078298333
In 0 2.915 8.745000000000001 2.0597359851803656 1.8620139268754132 -1.2986506608515329
In 2.915 0 8.745000000000001 -1.2100280428394741 -0.14528139249144564 0.50653621973016638
In 2.915 2.915 5.8300000000000001 2.4031982921232062 -0.79321159903379168 0.44958572751954751
P 1.4575 1.4575 7.2874999999999996 -2.368498390063527 -0.88705567423303622 0.77353716662382643
P 1.4575 4.3725000000000005 10.202500000000001 -3.292152407797905 -2.0659947898888991 -0.16154957587616686
P 4.3725000000000005 1.4575 10.202500000000001 1.4796851727894227 2.5790505896146447 -0.51825858626396915
P 4.3725000000000005 4.3725000000000005 7.2874999999999996 -0.99630698144302565 -4.0531362826381718 -3.4275856335694916
In 5.8300000000000001 0 5.8300000000000001 -1.4464791551628005 0.38703975583796318 -0.58966292531045439
In 5.8300000000000001 2.915 8.745000000000001 0.67769750994050804 0.94287614878532944 0.11333018129071806
In 8.745000000000001 0 8.745000000000001 -1.6460055871432306 1.1169832065670093 0.88854846448228164
In 8.745000000000001 2.915 5.8300000000000001 2.1013061211651407 -0.56604188327687044 0.28466896599768771
P 7.2874999999999996 1.4575 7.2874999999999996 -3.7304543602574132 -0.43325753042074916 -2.5236561777544271
P 7.2874999999999996 4.3725000000000005 10.202500000000001 4.852839662188468 1.9927079125733318 -1.8248792742529789
P 10.202500000000001 1.4575 10.202500000000001 0.23720409529474654 1.5454651709448126 4.8638331778227499
P 10.202500000000001 4.3725000000000005 7.2874999999999996 0.3349191170512546 3.2340002203850866 -1.3554685719112645
In 11.66 0 5.8300000000000001 -0.37719787597023074 0.50403551775341648 -1.3495126241259334
In 11.66 2.915 8.745000000000001 0.026733210118277669 0.33057683006308658 -1.3153061677064075
In 14.574999999999999 0 8.745000000000001 -1.7101199216698861 -2.109244605705848 -0.76609425872811554
In 14.574999999999999 2.915 5.8300000000000001 -1.1488244414384636 -0.44495398728414209 -2.3128029959622562
P 13.1175 1.4575 7.2874999999999996 -1.2768362842809491 -0.94813436055992995 3.2443553302337942
P 13.1175 4.3725000000000005 10.202500000000001 4.0714863281793354 4.357646790814087 2.2207230798000581
P 16.032499999999999 1.4575 10.202500000000001 2.3498586452472452 -1.9775769097423648 0.59374519092381606
P 16.032499999999999 4.3725000000000005 7.2874999999999996 -2.8429314558099774 -4.6301417481971692 -3.1275116944732364
In 17.490000000000002 0 5.8300000000000001 2.0874530497063541 -1.3767920199619021 2.5322237836810406
In 17.490000000000002 2.915 8.745000000000001 2.0076663503758128 -0.68357337004934626 2.1283223785313603
In 20.405000000000001 0 8.745000000000001 1.7314745419393389 -2.2828603390789977 1.6725110993952854
In 20.405000000000001 2.915 5.8300000000000001 0.57933617986287322 2.1719487890606994 2.5071830651691633
P 18.947500000000002 1.4575 7.2874999999999996 -2.2358249949458537 -3.8251985516330325 2.6728224988043134
P 18.947500000000002 4.3725000000000005 10.202500000000001 1.9993435176500716 -0.48795237274587455 0.45530272870293492
P 21.862500000000001 1.4575 10.202500000000001 -0.78906546607682004 3.6845678075886417 -0.70219480568887749
P 21.862500000000001 4.3725000000000005 7.2874999999999996 3.8465784834644365 0.64184417720207354 0.60907476050034892
In 0 5.8300000000000001 5.8300000000000001 0.53850022727806701 1.8078279239306529 0.93688825257620734
In 0 8.745000000000001 8.745000000000001 2.4555837986330067 2.01736575513273 2.0209636559833237
In 2.915 5.8300000000000001 8.745000000000001 1.1309894441193638 -1.8606480048302392 1.0761829771243139
In 2.915 8.745000000000001 5.8300000000000001 -2.0360740400809392 2.2618953886050797 1.0799737523175037
P 1.4575 7.2874999999999996 7.2874999999999996 0.48487975991170751 -0.38953001196241444 4.3243461318675696
P 1.4575 10.202500000000001 10.202500000000001 4.5283876313595686 4.6765595821999435 3.5162608135900766
P 4.3725000000000005 7.2874999999999996 10.202500000000001 -0.99669304272886905 -0.83392964154658067 0.55081067983073895
P 4.3725000000000005 10.202500000000001 7.2874999999999996 -0.86357472013879655 3.7058235096693881 -2.6439408082563443
In 5.8300000000000001 5.8300000000000001 5.8300000000000001 -1.444076997889516 0.40917150512267236 -1.8674139681665645
In 5.8300000000000001 8.745000000000001 8.745000000000001 0.22093139803220482 0.83841782493777151 -0.25245761252646182
In 8.745000000000001 5.8300000000000001 8.745000000000001 1.907954233420585 -1.9817130100712212 -0.98548588916803337
In 8.745000000000001 8.745000000000001 5.8300000000000001 2.4535075609447117 2.4290987779217823 1.8341470802110444
P 7.2874999999999996 7.2874999999999996 7.2874999999999996 3.5704910417008402 0.73929579741056706 -2.1293800075367706
P 7.2874999999999996 10.202500000000001 10.202500000000001 -1.4444217400519648 -2.3126745482066902 -0.90383456736738799
P 10.202500000000001 7.2874999999999996 10.202500000000001 3.2890591450981428 -1.6178570128018503 -1.5151397487199001
P 10.202500000000001 10.202500000000001 7.2874999999999996 3.1156818794974126 -3.2479582858439691 -3.3887026458547873
In 11.66 5.8300000000000001 5.8300000000000001 -0.74172072910069908 2.2652597677645878 2.1425716648048727
In 11.66 8.745000000000001 8.745000000000001 -1.7095568340734992 2.3107029339206875 -0.76172006295702177
In 14.574999999999999 5.8300000000000001 8.745000000000001 0.80746752797403731 -2.0062757661165636 -0.21473992946326279
In 14.574999999999999 8.745000000000001 5.8300000000000001 2.1858421300642967 -2.1394656991012106 0.73842402334803103
P 13.1175 7.2874999999999996 7.2874999999999996 -0.062538648043712078 2.0855487851516901 -4.3942600838842649
P 13.1175 10.202500000000001 10.202500000000001 -4.4202623208031913 -2.9956757431603589 4.1499311316137923
P 16.032499999999999 7.2874999999999996 10.202500000000001 -2.772529946809847 3.9716406733734573 -0.61465967423270562
P 16.032499999999999 10.202500000000001 7.2874999999999996 -4.5307166417096365 4.4843778564112338 -3.5127653264727594
In 17.490000000000002 5.8300000000000001 5.8300000000000001 -0.022179417511420236 0.40615219241951028 -2.1743456417006835
In 17.490000000000002 8.745000000000001 8.745000000000001 1.6683864651552172 1.6514943417235461 1.2923980730232756
In 20.405000000000001 5.8300000000000001 8.745000000000001 2.3928435692050942 1.7102595660397926 0.36184735741144858
In 20.405000000000001 8.745000000000001 5.8300000000000001 0.3993175302475096 -2.1259452786961708 1.0021735925622677
P 18.947500000000002 7.2874999999999996 7.2874999999999996 -2.8346652183502186 -1.6078301736824558 1.9743879024941249
P 18.947500000000002 10.202500000000001 10.202500000000001 -3.8413776713540457 -0.8355220573307115 2.9102946127292597
P 21.862500000000001 7.2874999999999996 10.202500000000001 0.36994137437405528 -0.31897996325839445 -3.992841987822338
P 21.862500000000001 10.202500000000001 7.2874999999999996 -3.1806877827421771 -2.2736052247363547 -4.391944715203703
In 0 11.66 5.8300000000000001 1.2963251092166592 -2.2341214754135605 -1.3235152102965648
In 0 14.574999999999999 8.745000000000001 -0.76425278234427463 1.8589678668009313 -2.0551254041628386
In 2.915 11.66 8.745000000000001 0.29861883739365869 0.16999672451289921 -1.7169944744963128
In 2.915 14.574999999999999 5.8300000000000001 -1.6328128901501191 0.91655108435475519 1.5281532675045495
P 1.4575 13.1175 7.2874999999999996 -1.2070569703495626 -2.8035844593770558 -0.048840185479949248
P 1.4575 16.032499999999999 10.202500000000001 -3.90879472979125 1.8914014431669686 4.0792957310077327
P 4.3725000000000005 13.1175 10.202500000000001 -4.1516648531330986 -2.7765192134741312 -1.4269698913188411
P 4.3725000000000005 16.032499999999999 7.2874999999999996 3.7931864996577636 -3.605269813485275 0.3666904165528711
In 5.8300000000000001 11.66 5.8300000000000001 -1.671023266933183 -0.71430851654240879 0.037015940417073276
In 5.8300000000000001 14.574999999999999 8.745000000000001 -0.83234756164820745 2.3475243827510912 -2.299109791014613
In 8.745000000000001 11.66 8.745000000000001 0.76631160749364391 2.3396343333323282 1.277203334817107
In 8.745000000000001 14.574999999999999 5.8300000000000001 -1.3140124581336428 2.4100461776619553 -0.61936683709577089
P 7.2874999999999996 13.1175 7.2874999999999996 0.70333094411945873 1.5943048528997226 0.55458065178096894
P 7.2874999999999996 16.032499999999999 10.202500000000001 1.9059335073237813 2.2236689796380009 -3.1576940229398218
P 10.202500000000001 13.1175 10.202500000000001 -0.88477344108903067 -3.1024872994956003 -4.8079804986945307
P 10.202500000000001 16.032499999999999 7.2874999999999996 -2.2118174817245984 1.6517905952852725 -4.0564143004196005
In 11.66 11.66 5.8300000000000001 -0.50686951967109606 0.062699148879592811 0.63656989713451606
In 11.66 14.574999999999999 8.745000000000001 -1.841864291703222 -2.0798325944568559 -0.73725909630211461
In 14.574999999999999 11.66 8.745000000000001 -1.0961514664514957 2.1532403697848794 0.79445325322708515
In 14.574999999999999 14.574999999999999 5.8300000000000001 2.067821933023112 1.578165612936566 -0.44031759414085492
P 13.1175 13.1175 7.2874999999999996 3.5913061740886243 1.1006336375008619 3.5390282266455095
P 13.1175 16.032499999999999 10.202500000000001 4.1022212899823094 -3.2977384887104213 4.5286922644387575
P 16.032499999999999 13.1175 10.202500000000001 3.4208429519815837 -0.09183199840704348 -1.4582949299095371
P 16.032499999999999 16.032499999999999 7.2874999999999996 -4.3547354130330191 1.3405931845863943 -1.8801515675588027
In 17.490000000000002 11.66 5.8300000000000001 -1.2420823599153152 0.81144064888418987 0.29005681151261131
In 17.490000000000002 14.574999999999999 8.745000000000001 2.5768748130549377 -2.2101604600634652 -2.1199856493132949
In 20.405000000000001 11.66 8.745000000000001 -1.8872197279845813 2.2989351380747509 -1.8323028244242028
In 20.405000000000001 14.574999999999999 5.8300000000000001 -1.5490499878540855 1.481121668404636 -2.2892745514648802
P 18.947500000000002 13.1175 7.2874999999999996 -2.6718850823489277 -3.3443899777201689 -2.923789741478235
P 18.947500000000002 16.032499999999999 10.202500000000001 -4.3378899916872289 2.9371682476852214 -0.43275619617691313
P 21.862500000000001 13.1175 10.202500000000001 -0.76850908362393588 -0.30290450819716352 4.0783870752282017
P 21.862500000000001 16.032499999999999 7.2874999999999996 -3.9975202221527093 -4.0339318198865612 -1.0135563518790522
In 0 17.490000000000002 5.8300000000000001 -0.34070223163690011 -1.4652846997629838 -1.867731934941641
In 0 20.405000000000001 8.745000000000001 1.5952665598698794 -1.6153904261927494 2.2820360782654987
In 2.915 17.490000000000002 8.745000000000001 -1.1253983265401111 -0.14376493303475152 0.77434184413417884
In 2.915 20.405000000000001 5.8300000000000001 -0.82490150497070747 1.3967566402211447 2.1578221525373551
P 1.4575 18.947500000000002 7.2874999999999996 0.20952007183475327 2.2315391473848671 2.9156125592502868
P 1.4575 21.862500000000001 10.202500000000001 -0.10013189578345806 1.2588477202343626 2.7227205289747571
P 4.3725000000000005 18.947500000000002 10.202500000000001 -3.7399668729107045 4.7214997341561915 1.6217783058533293
P 4.3725000000000005 21.862500000000001 7.2874999999999996 -1.4117957506014496 2.398964499966723 1.5892984466705613
In 5.8300000000000001 17.490000000000002 5.8300000000000001 1.8915806332431515 0.23980191459785832 1.3219945420178445
In 5.8300000000000001 20.405000000000001 8.745000000000001 -1.2261201403215416 1.7635836403458474 -1.2285291081761307
In 8.745000000000001 17.490000000000002 8.745000000000001 -0.13184288832933758 -1.6968239537534744 0.51634112774203234
In 8.745000000000001 20.405000000000001 5.8300000000000001 -2.0060289536898459 -2.2007726142203681 -0.69829704275575299
P 7.2874999999999996 18.947500000000002 7.2874999999999996 0.61288642530322968 -4.0994900186829462 3.8320051150805647
P 7.2874999999999996 21.862500000000001 10.202500000000001 -2.507957602692485 4.4947163581297618 -4.4928630438859019
P 10.202500000000001 18.947500000000002 10.202500000000001 0.28955501282654078 -1.9968830479868349 -3.5291440992567313
P 10.202500000000001 21.862500000000001 7.2874999999999996 4.5203012517530192 4.6771189465877683 3.2097594074924936
In 11.66 17.490000000000002 5.8300000000000001 -1.7828578454624331 1.0438335757169164 2.1659318225833268
In 11.66 20.405000000000001 8.745000000000001 -0.40276296321511135 -0.43980191463321794 -1.4676347303429362
In 14.574999999999999 17.490000000000002 8.745000000000001 0.7596503846430982 1.3495071269362011 -0.077833849927533769
In 14.574999999999999 20.405000000000001 5.8300000000000001 -2.1564327695673717 1.9828717433329159 2.3246620143563899
P 13.1175 18.947500000000002 7.2874999999999996 -2.6636156714854704 -0.26874300724422229 -4.2335867443794255
P 13.1175 21.862500000000001 10.202500000000001 -4.6331048891767885 1.9148476662596934 0.12268168771733635
P 16.032499999999999 18.947500000000002 10.202500000000001 3.9791725344486095 -3.6298355519237964 -4.7846512846920239
P 16.032499999999999 21.862500000000001 7.2874999999999996 -2.365183846749217 -3.4259582242015543 4.657583107004359
In 17.490000000000002 17.490000000000002 5.8300000000000001 -1.2888114221538876 2.2791396899389458 -1.6392639147458477
In 17.490000000000002 20.405000000000001 8.745000000000001 0.26543409626705911 2.3031445162055526 -1.6994042799520874
In 20.405000000000001 17.490000000000002 8.745000000000001 -0.52050487297639758 -2.1327276750305391 -2.0245163564466844
In 20.405000000000001 20.405000000000001 5.8300000000000001 1.8192245312295525 -0.27757265090971855 1.4321265310469333
P 18.947500000000002 18.947500000000002 7.2874999999999996 -3.1349574532649949 -0.59531281038749184 1.687820326659752
P 18.947500000000002 21.862500000000001 10.202500000000001 -1.8477765526377594 4.2123222330876589 -3.6067118906525968
P 21.862500000000001 18.947500000000002 10.202500000000001 -2.6996552397605904 -4.1059693269857194 1.7193958652398369
P 21.862500000000001 21.862500000000001 7.2874999999999996 4.0936815295345337 -1.2094122505453695 -0.15526179288379094
In 0 0 11.66 0.50379508552081187 -1.4369349124048423 0.48376906536022657
In 0 2.915 14.574999999999999 -0.40267543533140804 1.0312792267714748 -2.0365174965667059
In 2.915 0 14.574999999999999 -1.5417193455671103 -1.4094157356796819 -1.0370714571490036
In 2.915 2.915 11.66 -0.96858407612606123 2.5354501077506808 -1.2913734475426748
P 1.4575 1.4575 13.1175 -3.035155177211736 -2.6572494844883936 3.3451986861234868
P 1.4575 4.3725000000000005 16.032499999999999 -4.667621906274845 4.2516616349112271 -2.5556151557198632
P 4.3725000000000005 1.4575 16.032499999999999 -0.088698058970392346 -0.7274304078061129 4.259516459766421
P 4.3725000000000005 4.3725000000000005 13.1175 2.0353390832021141 2.609720180205533 0.43540084494105941
In 5.8300000000000001 0 11.66 -1.1008777161595886 -1.622853081366308 -2.0900327953180891
In 5.8300000000000001 2.915 14.574999999999999 -1.5425765673448981 -0.68514507640349309 0.93198214863920359
In 8.745000000000001 0 14.574999999999999 1.8075206326646804 -0.2742338095240397 2.0655110787918236
In 8.745000000000001 2.915 11.66 -0.47384997667953382 0.19693199447242554 2.0800410715402187
P 7.2874999999999996 1.4575 13.1175 1.381927567752516 0.17481834650654135 4.8665241201871892
P 7.2874999999999996 4.3725000000000005 16.032499999999999 -1.1040045005569921 1.2217916818232868 1.2171579787490159
P 10.202500000000001 1.4575 16.032499999999999 -0.30746340562378099 1.7163451757786299 3.353427430406215
P 10.202500000000001 4.3725000000000005 13.1175 2.3362109434667904 1.6312274004116285 -0.1834383403511437
In 11.66 0 11.66 1.1566711694446585 1.0435256450779171 2.0344072657733054
In 11.66 2.915 14.574999999999999 1.9802874118001768 -1.8496159613379104 -0.13129268278904102
In 14.574999999999999 0 14.574999999999999 2.3341489736386696 -1.2159980129493428 1.4850882757091466
In 14.574999999999999 2.915 11.66 -2.1406008013104372 0.74588051653292364 -2.0163665747386643
P 13.1175 1.4575 13.1175 -3.5565028080386463 1.1411402596976199 4.7921204292636288
P 13.1175 4.3725000000000005 16.032499999999999 -0.42089354742412127 -1.9872682992964412 2.7421183840107366
P 16.032499999999999 1.4575 16.032499999999999 2.1204789367794614 -3.1900842399956035 -1.4734812985140446
P 16.032499999999999 4.3725000000000005 13.1175 4.0322686277437603 -4.3557533883625341 -2.6582172779388453
In 17.490000000000002 0 11.66 -1.5928276838862392 2.1137756122186389 -1.7433213991234171
In 17.490000000000002 2.915 14.574999999999999 -0.20365222878958153 1.9313572151300409 -0.9789800138663538
In 20.405000000000001 0 14.574999999999999 1.0498250743133959 0.89739142884512424 2.3192274595884412
In 20.405000000000001 2.915 11.66 -0.88029863443185197 -1.591510728676325 0.11885680874071079
P 18.947500000000002 1.4575 13.1175 4.2698995791128027 -0.37294802832878399 1.4933235667088183
P 18.947500000000002 4.3725000000000005 16.032499999999999 0.86826972243916345 -2.6929081945939917 -3.7986830507087177
P 21.862500000000001 1.4575 16.032499999999999 3.736599354898996 -3.3070218924659218 3.8263441019212392
P 21.862500000000001 4.3725000000000005 13.1175 3.9140176743582042 -1.7130991258223909 -0.47245236180858985
In 0 5.8300000000000001 11.66 1.1517145395635173 -1.5607016816483821 -1.5916561562637364
In 0 8.745000000000001 14.574999999999999 -2.3784607306574053 -2.2243232800805877 1.9510515797573358
In 2.915 5.8300000000000001 14.574999999999999 2.0506522204028932 0.50715009741549255 0.55857082787960011
In 2.915 8.745000000000001 11.66 -0.70972218503850082 0.37116068608959485 -0.14430646504643876
P 1.4575 7.2874999999999996 13.1175 -2.4496266228756758 4.3818882408464521 1.9217495387786003
P 1.4575 10.202500000000001 16.032499999999999 0.61330892648538848 3.0014873498707995 3.0194016158218453
P 4.3725000000000005 7.2874999999999996 16.032499999999999 4.8803640299905906 -1.3766987056884197 3.5055015736914443
P 4.3725000000000005 10.202500000000001 13.1175 2.4557956666734921 1.9897651773513312 -2.7447367891164625
In 5.8300000000000001 5.8300000000000001 11.66 1.4850458004773335 2.0468814324098181 -1.2517519402339714
In 5.8300000000000001 8.745000000000001 14.574999999999999 -2.3565240295553362 -1.7363834357213084 1.4303991506700346
In 8.745000000000001 5.8300000000000001 14.574999999999999 2.0233491811339137 0.61674715311057704 1.5453080046032073
In 8.745000000000001 8.745000000000001 11.66 0.93103169550963216 1.7078882429332356 0.85794544831245256
P 7.2874999999999996 7.2874999999999996 13.1175 -3.3261932380409753 -1.4336470217604318 -2.2664567669967246
P 7.2874999999999996 10.202500000000001 16.032499999999999 -1.9297828463630122 4.4314350538844822 -0.21048954552488311
P 10.202500000000001 7.2874999999999996 16.032499999999999 4.4663769362566947 1.1908449201862845 -4.3949152244888428
P 10.202500000000001 10.202500000000001 13.1175 2.0392417956455113 0.2484375105567791 -0.40673573693525489
In 11.66 5.8300000000000001 11.66 1.0597218788523313 0.78541745066402802 1.7344796032750749
In 11.66 8.745000000000001 14.574999999999999 -2.0452507371767319 -0.65488191485149949 0.1345033750614055
In 14.574999999999999 5.8300000000000001 14.574999999999999 0.010590203848594782 1.3838178694493324 1.582126583281894
In 14.574999999999999 8.745000000000001 11.66 0.44370932131045188 2.5186302670945109 -1.5259565561473674
P 13.1175 7.2874999999999996 13.1175 -2.4997095784001067 -2.4968194437876265 0.9415418552424234
P 13.1175 10.202500000000001 16.032499999999999 -1.5785767711374779 4.8468286344935043 1.4453143943372329
P 16.032499999999999 7.2874999999999996 16.032499999999999 -0.3099418565149254 -1.1080242626363055 -4.6893553232600063
P 16.032499999999999 10.202500000000001 13.1175 -2.5201806044304327 2.9252382659298068 2.9225525580720362
In 17.490000000000002 5.8300000000000001 11.66 -2.0643778909192108 0.68244947775721787 1.197691606355479
In 17.490000000000002 8.745000000000001 14.574999999999999 -1.8054294067436778 -0.026469914351241061 0.00023495320993340997
In 20.405000000000001 5.8300000000000001 14.574999999999999 0.32368034219252051 -2.3060103204856053 0.96843194805325072
In 20.405000000000001 8.745000000000001 11.66 -0.43528758823666497 -2.3436798239889267 -1.659701825909526
P 18.947500000000002 7.2874999999999996 13.1175 -1.0563503606350866 -3.5973884484151011 -3.0795482607036764
P 18.947500000000002 10.202500000000001 16.032499999999999 -4.1070736173655558 -0.82749743252177721 1.8718223648280372
P 21.862500000000001 7.2874999999999996 16.032499999999999 3.7726702865286188 1.05732832639101 3.7870648229882553
P 21.862500000000001 10.202500000000001 13.1175 1.6669186987931666 4.1055923218296231 -1.4846760360843427
In 0 11.66 11.66 -0.071538334943247711 -1.9751994567613886 -2.4772406535333462
In 0 14.574999999999999 14.574999999999999 2.3824769663955059 -1.0298002977870935 -1.3305082527493775
In 2.915 11.66 14.574999999999999 1.4439285589318629 1.9990026982536138 1.0688739525758031
In 2.915 14.574999999999999 11.66 0.99328070857073203 -1.1970133521400608 -2.247121845143544
P 1.4575 13.1175 13.1175 4.155869551000487 -4.4511120765035557 -3.5748079409538591
P 1.4575 16.032499999999999 16.032499999999999 -1.1925213619676043 -1.1970811903430207 3.23035491050892
P 4.3725000000000005 13.1175 16.032499999999999 3.3206766747707568 -4.1476627795631389 -0.065277200618980569
P 4.3725000000000005 16.032499999999999 13.1175 1.7419510536468568 3.1683529538207931 1.9931309198002383
In 5.8300000000000001 11.66 11.66 -1.7377883885615244 1.94634178166183 -1.3266549566326569
In 5.8300000000000001 14.574999999999999 14.574999999999999 1.9864131752005272 0.22877565133742453 -2.4172471334625385
In 8.745000000000001 11.66 14.574999999999999 -2.3633998162109577 -1.288818821180467 -1.7987379948836044
In 8.745000000000001 14.574999999999999 11.66 0.96603096440208869 -0.19168554510021482 2.3911257160335873
P 7.2874999999999996 13.1175 13.1175 -0.28096850444711929 0.46017032790365281 -4.5533673079792161
P 7.2874999999999996 16.032499999999999 16.032499999999999 2.0838922185563931 3.1922176096293975 -4.6386231399686579
P 10.202500000000001 13.1175 16.032499999999999 -2.2171068450097482 0.12310991212867579 -0.20839063733249824
P 10.202500000000001 16.032499999999999 13.1175 -3.0588756194522619 -3.3094366582982273 2.0723294474120766
In 11.66 11.66 11.66 1.1791433910639799 0.4442274371985761 2.2292160608495273
In 11.66 14.574999999999999 14.574999999999999 0.25255848762288508 -2.2548508666903579 -1.6956615927181893
In 14.574999999999999 11.66 14.574999999999999 2.1425958724514542 2.3812080652273151 -1.0904160124067541
In 14.574999999999999 14.574999999999999 11.66 2.4995629548888703 -0.27321190163500775 -0.93474580164862076
P 13.1175 13.1175 13.1175 0.50716472067408325 -4.4480026969027193 0.14584164900207
P 13.1175 16.032499999999999 16.032499999999999 -3.9474221545363064 3.0987647945173209 -2.6464218222812446
P 16.032499999999999 13.1175 16.032499999999999 2.6887805290019782 -4.160077261406304 4.8547772510580103
P 16.032499999999999 16.032499999999999 13.1175 -4.3098337894524441 -1.2014357330899395 -2.0022743311261006
In 17.490000000000002 11.66 11.66 -1.6254350030989972 -1.1799435687137465 2.18824940127368
In 17.490000000000002 14.574999999999999 14.574999999999999 -0.42659643766624095 2.5002484133052545 2.249899764572151
In 20.405000000000001 11.66 14.574999999999999 1.2627564864722776 -1.5090063409335353 -0.29296393217941752
In 20.405000000000001 14.574999999999999 11.66 2.4629490307107642 -0.29182103526976227 -0.97878184421756653
P 18.947500000000002 13.1175 13.1175 4.4099077996226423 3.472455393296793 -2.9354490888566911
P 18.947500000000002 16.032499999999999 16.032499999999999 4.6268651786278596 -0.23461643633455578 -3.4248911290367983
P 21.862500000000001 13.1175 16.032499999999999 -2.2235564987138572 -1.491094497960358 2.987677966987091
P 21.862500000000001 16.032499999999999 13.1175 -0.026650544247683906 3.377111604783392 -3.601621710435488
In 0 17.490000000000002 11.66 0.27001837446067894 -1.3507429692376904 1.5223040274856205
In 0 20.405000000000001 14.574999999999999 -1.6292462968236103 0.33389680877410116 -0.99894659303673539
In 2.915 17.490000000000002 14.574999999999999 0.38640637352949242 -2.2375314458291884 1.8915003284577743
In 2.915 20.405000000000001 11.66 2.1102576287877985 -1.4340240547963481 -1.032104037188494
P 1.4575 18.947500000000002 13.1175 -3.3827626533277981 -0.83741986575538596 0.13704443600808672
P 1.4575 21.862500000000001 16.032499999999999 -3.2816537576850351 -0.35447844360032488 1.2639965855640249
P 4.3725000000000005 18.947500000000002 16.032499999999999 -2.9877836013140251 -2.5177444970932656 -1.2672368512201562
P 4.3725000000000005 21.862500000000001 13.1175 -3.7143072595049889 -0.86561800773765007 1.8900670809046742
In 5.8300000000000001 17.490000000000002 11.66 -0.43282537855822484 -1.3122473012529432 -2.139678530628045
In 5.8300000000000001 20.405000000000001 14.574999999999999 2.6007177881310222 0.053331908471040017 -0.43880317103566535
In 8.745000000000001 17.490000000000002 14.574999999999999 -1.0856888685757653 1.4628236174085567 -2.1488103786673429
In 8.745000000000001 20.405000000000001 11.66 -1.3001460552663902 -1.5990083964126052 0.20219748635285756
P 7.2874999999999996 18.947500000000002 13.1175 3.4409525806727612 -1.880156114946721 -2.6627922908734871
P 7.2874999999999996 21.862500000000001 16.032499999999999 0.045626428256207149 4.6688544450069545 0.21662275042665957
P 10.202500000000001 18.947500000000002 16.032499999999999 -2.3758425774486573 1.8797896832824352 3.0752207968855685
P 10.202500000000001 21.862500000000001 13.1175 -0.62174547321006712 0.58747296328746412 -0.68048230977574731
In 11.66 17.490000000000002 11.66 -0.76254619060309392 0.27846110372228594 0.4083117785088084
In 11.66 20.405000000000001 14.574999999999999 -0.16077706159464317 1.2614981827873499 -1.3915101543559123
In 14.574999999999999 17.490000000000002 14.574999999999999 0.68797108178499133 2.1193645820884548 1.4009127315598355
In 14.574999999999999 20.405000000000001 11.66 0.098165623559130707 0.45511463197851632 -1.4127319081812224
P 13.1175 18.947500000000002 13.1175 -3.6150914845096427 -3.0771392899222825 3.7832534928180297
P 13.1175 21.862500000000001 16.032499999999999 2.8847410598332646 -1.5748454766010542 3.0070874307135234
P 16.032499999999999 18.947500000000002 16.032499999999999 4.6853681325143315 2.5429236352043443 3.8835549922864558
P 16.032499999999999 21.862500000000001 13.1175 -2.8430416524794353 3.2255215004930688 1.7587662868585319
In 17.490000000000002 17.490000000000002 11.66 -1.6756691476957339 1.9042245928808079 1.9948158927088979
In 17.490000000000002 20.405000000000001 14.574999999999999 -0.35425447267652432 -2.2638436744339581 -1.5218105538789055
In 20.405000000000001 17.490000000000002 14.574999999999999 2.1131582764539738 1.9223700349506916 -0.7105465026714205
In 20.405000000000001 20.405000000000001 11.66 1.3904882622711336 1.6360300488267445 -1.3788223081246356
P 18.947500000000002 18.947500000000002 13.1175 -3.1826095453922059 4.2582846052788721 1.971522418405748
P 18.947500000000002 21.862500000000001 16.032499999999999 4.2727812647380103 -0.47915108676509166 2.7624361237931798
P 21.862500000000001 18.947500000000002 16.032499999999999 3.6771564316041889 -2.4671504653552367 4.4933900830743276
P 21.862500000000001 21.862500000000001 13.1175 0.84138312741111987 1.6878067653587638 -0.61244155545779311
In 0 0 17.490000000000002 2.4566405194424554 -0.39779037186220495 -1.5208323770494636
In 0 2.915 20.405000000000001 2.349059306115493 2.2325409753352661 2.0191878259422529
In 2.915 0 20.405000000000001 0.60017076149547899 -0.73183621130170018 -2.0067396936414412
In 2.915 2.915 17.490000000000002 2.4953611443757708 -0.27892149538512623 -1.0624397957285572
P 1.4575 1.4575 18.947500000000002 -1.4144247437859963 -2.9555692636632904 -1.3221750194724622
P 1.4575 4.3725000000000005 21.862500000000001 4.0446701854257103 0.21471445465329703 -4.1412933155826908
P 4.3725000000000005 1.4575 21.862500000000001 3.8072551656442291 -0.13892871324338454 3.0217899411438478
P 4.3725000000000005 4.3725000000000005 18.947500000000002 1.1522754619057205 4.0918669394663256 0.81855071823228698
In 5.8300000000000001 0 17.490000000000002 -0.71629092417872797 0.93540719900735081 0.6793335840666922
In 5.8300000000000001 2.915 20.405000000000001 -1.4614095223320513 1.6456433847807994 -1.2111870995497711
In 8.745000000000001 0 20.405000000000001 1.3563037735512882 2.0980171193759132 0.72857111427999399
In 8.745000000000001 2.915 17.490000000000002 -2.3229441963083812 -2.2730836534427707 -0.45830127662080211
P 7.2874999999999996 1.4575 18.947500000000002 2.389831118506081 0.0058127654573239731 -0.95058427367365694
P 7.2874999999999996 4.3725000000000005 21.862500000000001 2.0619974146692486 4.1003182243340621 -2.7567845936553499
P 10.202500000000001 1.4575 21.862500000000001 1.4696119486339165 -1.6900703635341556 -1.7375914739030149
P 10.202500000000001 4.3725000000000005 18.947500000000002 3.726879467998887 -1.6376035941647755 -3.3328178585120383
In 11.66 0 17.490000000000002 0.88049034368365842 -0.37117549726766963 1.9351839624310392
In 11.66 2.915 20.405000000000001 0.78853510063777821 -2.4400433570140221 -2.160713973557447
In 14.574999999999999 0 20.405000000000001 0.27449705831641646 -1.735488798626948 1.3349677170305325
In 14.574999999999999 2.915 17.490000000000002 -0.60989488856604768 -1.4387432207257354 0.35472527321928737
P 13.1175 1.4575 18.947500000000002 0.493742357679332 2.9480705845839634 -1.6442147119872697
P 13.1175 4.3725000000000005 21.862500000000001 3.4159847059860717 -4.0824630668922541 -1.2281763065959488
P 16.032499999999999 1.4575 21.862500000000001 3.8373114078202732 0.21392258193807923 1.9651793042719616
P 16.032499999999999 4.3725000000000005 18.947500000000002 0.10186507723445141 -1.4865620592650799 1.5024657404381789
In 17.490000000000002 0 17.490000000000002 -1.0319285499985904 2.1605389236817096 2.4084719688204652
In 17.490000000000002 2.915 20.405000000000001 -1.8771132238665968 0.66751629210837571 2.4089250488096754
In 20.405000000000001 0 20.405000000000001 0.4948124383961377 -1.0923143512740141 2.1637245984047659
In 20.405000000000001 2.915 17.490000000000002 1.2517360151874037 -0.10703659032890868 -2.327882519420204
P 18.947500000000002 1.4575 18.947500000000002 -2.4206634374530518 -3.9285266464545301 3.7227551686854841
P 18.947500000000002 4.3725000000000005 21.862500000000001 -2.8867740485767879 -3.7044592881063791 3.02024208862704
P 21.862500000000001 1.4575 21.862500000000001 1.3810678646633718 -4.5664728004847168 -0.89476144003131841
P 21.862500000000001 4.3725000000000005 18.947500000000002 0.6709009914563937 0.17745609141410881 0.66040942036053674
In 0 5.8300000000000001 17.490000000000002 -1.7674771604139703 2.3098568498347505 0.14974178326010651
In 0 8.745000000000001 20.405000000000001 -1.9039545139728891 -1.5499998606198859 1.7385506198940135
In 2.915 5.8300000000000001 20.405000000000001 2.6032184864970129 1.7316438028648002 1.6522514829018111
In 2.915 8.745000000000001 17.490000000000002 -2.3832206353605492 -1.5221905402106797 0.050289302296084012
P 1.4575 7.2874999999999996 18.947500000000002 -3.8904357983045745 -0.19767457264885546 -3.8382631882026019
P 1.4575 10.202500000000001 21.862500000000001 1.7801137600913197 3.8582077966596726 -4.3642388395592668
P 4.3725000000000005 7.2874999999999996 21.862500000000001 2.3440698053979152 -2.1932215348150308 -2.7589436518614279
P 4.3725000000000005 10.202500000000001 18.947500000000002 1.0826986943078332 -0.3562254068568847 1.0260011493419787
In 5.8300000000000001 5.8300000000000001 17.490000000000002 -0.084087507281173465 -1.0467798405430979 0.79466113958426265
In 5.8300000000000001 8.745000000000001 20.405000000000001 0.30926865982243107 -2.4176026577401943 1.7540574506940447
In 8.745000000000001 5.8300000000000001 20.405000000000001 1.3807619076342061 -0.43111016278714759 -1.6574665461153681
In 8.745000000000001 8.745000000000001 17.490000000000002 -0.71681813722738563 2.1622688759212347 1.220585101421825
P 7.2874999999999996 7.2874999999999996 18.947500000000002 -1.4198935987623906 2.2067718706883808 4.0847560286433851
P 7.2874999999999996 10.202500000000001 21.862500000000001 1.4920716771461346 -2.8112214768829609 -2.2035906678174095
P 10.202500000000001 7.2874999999999996 21.862500000000001 -1.4341644313588353 -4.6573834434826651 -4.7149667615044466
P 10.202500000000001 10.202500000000001 18.947500000000002 2.3957705142103674 2.7518496447876371 1.101598700051829
In 11.66 5.8300000000000001 17.490000000000002 1.0061904513514883 -1.1091912285621774 0.97052681589164291
In 11.66 8.745000000000001 20.405000000000001 -2.0453997689825805 1.8842062171017402 -1.5588900979316711
In 14.574999999999999 5.8300000000000001 20.405000000000001 -2.1514952325367278 -0.77766016109676461 -0.45841289311007821
In 14.574999999999999 8.745000000000001 17.490000000000002 -1.4476251982879593 1.3009557226971051 1.0249573454282661
P 13.1175 7.2874999999999996 18.947500000000002 1.766481491359621 -1.9813433150038224 -4.4617960048241034
P 13.1175 10.202500000000001 21.862500000000001 4.6037047743323534 -1.1819845404610272 4.558543998376452
P 16.032499999999999 7.2874999999999996 21.862500000000001 3.021233420276217 1.4259298343982318 -4.3724016746882555
P 16.032499999999999 10.202500000000001 18.947500000000002 4.8625071788865144 -0.55689637178320694 -3.0655870926373701
In 17.490000000000002 5.8300000000000001 17.490000000000002 2.5863059084673616 -0.06157634183775363 0.098794250945318476
In 17.490000000000002 8.745000000000001 20.405000000000001 -1.6703188772112263 1.0366381546857937 2.2852671809200724
In 20.405000000000001 5.8300000000000001 20.405000000000001 1.2350618053717088 2.1059978369343901 -1.3238825873676074
In 20.405000000000001 8.745000000000001 17.490000000000002 -1.2343592020680776 -0.5259534267106345 -1.8266443672887995
P 18.947500000000002 7.2874999999999996 18.947500000000002 4.5815986317040265 -3.8258541488099373 1.3619394188296317
P 18.947500000000002 10.202500000000001 21.862500000000001 -4.5421249963622339 -2.808804016821874 -0.40429411018446421
P 21.862500000000001 7.2874999999999996 21.862500000000001 -1.7309902787566904 -3.6317231168544812 2.3219996143356356
P 21.862500000000001 10.202500000000001 18.947500000000002 0.3246407427438297 -4.4830793360581307 2.7848263719423687
In 0 11.66 17.490000000000002 -0.42430016362499745 0.7428006816780075 1.7033716400453591
In 0 14.574999999999999 20.405000000000001 -1.4762574466245277 -0.75400124917911382 -1.288470028371568
In 2.915 11.66 20.405000000000001 -1.6836294430208398 -0.74395092205684732 1.1798100514835173
In 2.915 14.574999999999999 17.490000000000002 1.948648792279235 1.0498691923962766 -2.3146381972759142
P 1.4575 13.1175 18.947500000000002 0.25924739368059868 3.1331115960272515 1.8636894916929418
P 1.4575 16.032499999999999 21.862500000000001 -3.7032881711855596 -0.11483539606828019 0.23314746813713771
P 4.3725000000000005 13.1175 21.862500000000001 -2.3778988933196068 -3.5574951429895605 -2.4267323596764601
P 4.3725000000000005 16.032499999999999 18.947500000000002 -4.5722586524105528 -4.4627502633368383 4.6846980695652265
In 5.8300000000000001 11.66 17.490000000000002 0.82005047744112969 -2.3670031724239196 -0.23369493047231391
In 5.8300000000000001 14.574999999999999 20.405000000000001 1.1205503241786274 -0.77563759900355067 -1.7722716424198584
In 8.745000000000001 11.66 20.405000000000001 -1.8514611935725276 -1.9712601406475461 -1.8394087352409767
In 8.745000000000001 14.574999999999999 17.490000000000002 -2.0927140438823297 -1.4398982454058578 1.1176882458012987
P 7.2874999999999996 13.1175 18.947500000000002 -1.7408729811568147 -4.6987449272936948 -0.92024077065512389
P 7.2874999999999996 16.032499999999999 21.862500000000001 1.0611845090027527 -2.7588069556616537 -4.6769516770987005
P 10.202500000000001 13.1175 21.862500000000001 -2.2903682281353075 1.7018550980548648 2.512157933625085
P 10.202500000000001 16.032499999999999 18.947500000000002 -4.3273517418358995 -4.3935012739850707 3.6238214333342333
In 11.66 11.66 17.490000000000002 -0.18656505064672382 1.6152157696421279 1.8661859355775952
In 11.66 14.574999999999999 20.405000000000001 0.68908588676134808 0.68042904831356132 -2.4964718960758603
In 14.574999999999999 11.66 20.405000000000001 0.31678385145556898 -2.2064192008592265 0.23296948211784152
In 14.574999999999999 14.574999999999999 17.490000000000002 0.63360816052756153 1.3814374144689003 1.9247452699597076
P 13.1175 13.1175 18.947500000000002 -1.5759049460440373 1.2134996186436844 -2.2392064691653051
P 13.1175 16.032499999999999 21.862500000000001 -2.1053987719728515 4.0071296967915444 3.6772979056239907
P 16.032499999999999 13.1175 21.862500000000001 2.2535142716984549 -0.045104876609147124 -2.4423913258445906
P 16.032499999999999 16.032499999999999 18.947500000000002 4.7756711636348905 -3.8490038666006816 0.59417940024782556
In 17.490000000000002 11.66 17.490000000000002 1.2137309904786187 1.7134561211807777 -1.3961730094118008
In 17.490000000000002 14.574999999999999 20.405000000000001 1.5127033528067548 -2.1921460021351158 -1.9829328185914532
In 20.405000000000001 11.66 20.405000000000001 0.89823592100774419 0.29066671044424824 -1.2505494523575336
In 20.405000000000001 14.574999999999999 17.490000000000002 -1.684377498037863 1.8150854853905618 1.8619470808477356
P 18.947500000000002 13.1175 18.947500000000002 2.4762145711302517 -4.3082998193077229 -1.1406532991692921
P 18.947500000000002 16.032499999999999 21.862500000000001 -3.317422054190148 0.36755987517333039 1.8886798876007505
P 21.862500000000001 13.1175 21.862500000000001 3.8162610638352779 -4.1006165724754071 4.3134928697132038
P 21.862500000000001 16.032499999999999 18.947500000000002 4.7684502507780495 0.98971648787038402 3.2403194614095661
In 0 17.490000000000002 17.490000000000002 1.0373998140819622 -1.135463873969822 -1.777509272367505
In 0 20.405000000000001 20.405000000000001 0.17350036291792539 0.59579012967833278 2.3912136784328943
In 2.915 17.490000000000002 20.405000000000001 -0.48213264265407824 2.2184043601321428 1.4867836710401516
In 2.915 20.405000000000001 17.490000000000002 1.0097788432689017 -1.3254765868086138 2.4896753135017131
P 1.4575 18.947500000000002 18.947500000000002 3.8302115318352663 -2.6208290309206417 3.8762254468594164
P 1.4575 21.862500000000001 21.862500000000001 -3.9263469567428566 -1.8767167646484901 -3.1040638620760723
P 4.3725000000000005 18.947500000000002 21.862500000000001 2.1730989155479175 -2.2103202543509051 1.0950372765379675
P 4.3725000000000005 21.862500000000001 18.947500000000002 1.8689631417715298 2.1580101676705068 -0.0031381228023779212
In 5.8300000000000001 17.490000000000002 17.490000000000002 0.5567898604151007 1.5258847941537133 -1.4914083214976852
In 5.8300000000000001 20.405000000000001 20.405000000000001 -0.2730829815121224 0.14167125593616328 1.3840959771388179
In 8.745000000000001 17.490000000000002 20.405000000000001 1.0287373485875773 -0.45341634542502068 1.7324488229651198
In 8.745000000000001 20.405000000000001 17.490000000000002 -1.0251552268197728 -0.0091293454982061175 -1.101034519178536
P 7.2874999999999996 18.947500000000002 18.947500000000002 2.7097592363368168 -1.0495352861917646 -2.1467341182626054
P 7.2874999999999996 21.862500000000001 21.862500000000001 -1.3269223408807893 1.8287768526665631 -0.016420205079788992
P 10.202500000000001 18.947500000000002 21.862500000000001 -2.4875300685666932 -1.6583097911076499 -1.8632776759900882
P 10.202500000000001 21.862500000000001 18.947500000000002 -0.91595979470527156 -3.0336442255451241 -2.9833386121554946
In 11.66 17.490000000000002 17.490000000000002 -0.20718345724342005 -1.9354767871739598 -0.6486043539245413
In 11.66 20.405000000000001 20.405000000000001 -0.6389464749936552 -0.4537841029908084 0.59541310762291577
In 14.574999999999999 17.490000000000002 20.405000000000001 -0.43570181078724585 0.78221315409909953 -1.681475834974661
In 14.574999999999999 20.405000000000001 17.490000000000002 -0.67209614718794131 2.2687672340867397 0.56616982700338137
P 13.1175 18.947500000000002 18.947500000000002 -4.3499062339688193 4.8426963384979169 -0.052013697670915578
P 13.1175 21.862500000000001 21.862500000000001 2.2340686167042012 3.194886491865562 1.3863259142054023
P 16.032499999999999 18.947500000000002 21.862500000000001 -2.6508774979445371 0.25148890547208685 2.3393652433415615
P 16.032499999999999 21.862500000000001 18.947500000000002 -3.8526131749564705 4.4841423419393101 2.2366816161814334
In 17.490000000000002 17.490000000000002 17.490000000000002 1.7812526377483611 2.0997566027739225 -0.29912557247623039
In 17.490000000000002 20.405000000000001 20.405000000000001 -1.695853851350408 0.59891168977486264 -0.6272484005422313
In 20.405000000000001 17.490000000000002 20.405000000000001 -0.96605230637131112 -0.30788685982457437 1.3716522770046593
In 20.405000000000001 20.405000000000001 17.490000000000002 -1.1117744350518135 1.8590231324882478 -1.1262749974314366
P 18.947500000000002 18.947500000000002 18.947500000000002 -2.067068964577226 -2.202288446438728 0.17729144485098938
P 18.947500000000002 21.862500000000001 21.862500000000001 3.9685662914847013 2.558073726651187 -3.5978022116890744
P 21.862500000000001 18.947500000000002 21.862500000000001 -3.3076449556131031 -0.34030176887515723 -3.1620981150855152
P 21.862500000000001 21.862500000000001 18.947500000000002 3.0950441186778885 -0.62821217816944441 2.0892503342868438
