# exaStamp parity counterpart of LAMMPS examples/snap (WBe)
variable nsteps index 100
units           metal
boundary        p p p

lattice         bcc 3.1803
region          box block 0 4 0 4 0 4
create_box      2 box
create_atoms    1 box
mass 1 183.84
mass 2 9.012182
set     group all type/fraction 2 0.05 3590153

include WBe_Wood_PRB2019.snap

thermo          1
thermo_style    custom step temp pe ke etotal press pxx pyy pzz pxy pxz pyz
thermo_modify   norm yes format float %.16g

timestep 0.5e-3
neighbor 1.0 bin
neigh_modify once no every 1 delay 0 check yes

velocity all create 300.0 4928459 loop geom
# exact initial state (positions+velocities) for exaStamp, converted by lmp2xyz.py
write_dump all custom init.dump id type x y z vx vy vz modify sort id format float %.17g
fix 1 all nve
run             ${nsteps}
