128
Lattice="1.2721200000000000e+01 0 0 0 1.2721200000000000e+01 0 0 0 1.2721200000000000e+01" Properties=species:S:1:pos:R:3:velo:R:3
W 0 0 0 -0.016462152163539662 0.39776436910072843 1.2980525030797099
W 1.59015 1.59015 1.59015 1.943728455754772 -1.5636554871306059 -1.1924681418818812
W 3.1802999999999999 0 0 0.88052925935558946 -1.3929742748076526 -1.3756861824125368
W 4.7704500000000003 1.59015 1.59015 1.4475479348849518 -1.8352013692861073 1.5500041055761382
W 6.3605999999999998 0 0 -1.4123164481241033 1.4065712961192365 -1.3414810528179162
W 7.9507499999999993 1.59015 1.59015 -1.7812339379975615 0.58404912734192049 -0.016952595973489505
W 9.5409000000000006 0 0 0.12601533647107566 0.27961225012967056 0.99978618910586925
W 11.13105 1.59015 1.59015 0.99856275875228595 0.96366182681225654 -1.7804465599618513
W 0 3.1802999999999999 0 0.25212310496757756 0.57218399808783893 -0.88574024606700619
W 1.59015 4.7704500000000003 1.59015 -0.49471342229680748 1.6144715443188031 0.0062548975078743647
W 3.1802999999999999 3.1802999999999999 0 1.9108699807941665 1.3091852803099453 -1.0966232861658913
W 4.7704500000000003 4.7704500000000003 1.59015 1.4591089828431756 2.0269098892079525 -1.1298369688816003
W 6.3605999999999998 3.1802999999999999 0 0.37176272917531261 1.5588969812286759 1.9786460228188996
W 7.9507499999999993 4.7704500000000003 1.59015 -1.0654715466047793 -0.012082374135267122 1.4190946406349043
W 9.5409000000000006 3.1802999999999999 0 0.49362285800174682 -0.65445864859937442 -0.44704369059026755
W 11.13105 4.7704500000000003 1.59015 1.0687080664896798 0.76123755146687788 -0.23770417671178337
W 0 6.3605999999999998 0 -0.87640902684936228 0.786651583001716 1.4349815651803111
W 1.59015 7.9507499999999993 1.59015 1.1147753082433003 1.0796556812511471 -1.2880514726262602
W 3.1802999999999999 6.3605999999999998 0 -1.8862503061408171 -1.802146590685094 1.9764386224687074
W 4.7704500000000003 7.9507499999999993 1.59015 0.84899415513074528 -0.59029539509399287 0.1103709052312382
W 6.3605999999999998 6.3605999999999998 0 0.65391117214551531 -1.2747305070921873 0.4629205788120731
W 7.9507499999999993 7.9507499999999993 1.59015 1.4694962921320336 -1.6819777464897872 -0.29827498510379469
W 9.5409000000000006 6.3605999999999998 0 0.74713526661648644 1.4671613241050576 -0.05913315508588745
W 11.13105 7.9507499999999993 1.59015 -0.74270995655035921 -0.99805444061393078 -1.1487322089318099
W 0 9.5409000000000006 0 -0.042504041373560078 0.3287016022487208 -0.56530343060708732
W 1.59015 11.13105 1.59015 1.9775289738416166 -0.75960435370289803 -0.95499672589553974
W 3.1802999999999999 9.5409000000000006 0 -1.171605643754859 -0.92390464012548645 1.1202095995194028
W 4.7704500000000003 11.13105 1.59015 -1.1055983130552305 -1.7891564321484716 1.4935485544958897
W 6.3605999999999998 9.5409000000000006 0 -0.7977254532426572 -1.7854612888167745 -1.2343210527706097
W 7.9507499999999993 11.13105 1.59015 -0.02110223307041632 -0.59990492783798821 0.68331303466618964
W 9.5409000000000006 9.5409000000000006 0 0.050983640411062812 -0.60331253389488804 0.13980367156445403
W 11.13105 11.13105 1.59015 -0.60002180712932207 -1.6276396961379886 1.2593181401609284
W 0 0 3.1802999999999999 1.1109220325241673 1.1497942528850755 -1.6036894389187943
W 1.59015 1.59015 4.7704500000000003 0.99473835204800543 1.5190019310768521 0.044018821888356249
W 3.1802999999999999 0 3.1802999999999999 1.9122120295938509 -0.4470543870567516 0.66866246436255961
W 4.7704500000000003 1.59015 4.7704500000000003 -0.072215325773011069 -0.63175150420386583 0.30308861397916947
W 6.3605999999999998 0 3.1802999999999999 -0.40570500968514889 -1.6644580508439462 -1.6414053633732082
W 7.9507499999999993 1.59015 4.7704500000000003 1.2551873283032948 -1.3367549798201315 -0.61608625611917534
W 9.5409000000000006 0 3.1802999999999999 -1.6369288010910736 -1.232890277814493 -1.3779074172474937
W 11.13105 1.59015 4.7704500000000003 -1.6360563171957196 1.2749196295616383 -1.6141411129027283
W 0 3.1802999999999999 3.1802999999999999 -0.50320147306204821 0.77611642095894562 -1.3931010080599135
W 1.59015 4.7704500000000003 4.7704500000000003 0.71779997377596871 -1.2780195992390937 1.9112745009738812
W 3.1802999999999999 3.1802999999999999 3.1802999999999999 -0.46962258221354197 1.907287533576945 -1.82631698296127
Be 4.7704500000000003 4.7704500000000003 4.7704500000000003 3.0128364839123747 -1.1902494403427297 2.9816632024556755
W 6.3605999999999998 3.1802999999999999 3.1802999999999999 -0.6269242552560117 0.04791972032473546 0.92406171782453017
W 7.9507499999999993 4.7704500000000003 4.7704500000000003 -0.96508814023160028 1.4960953791501233 -0.0055468859575382489
W 9.5409000000000006 3.1802999999999999 3.1802999999999999 -1.6927656872961629 0.38264522826994574 -1.5847910553536342
W 11.13105 4.7704500000000003 4.7704500000000003 1.7114811314114604 1.1922151569238733 -1.7891346730000222
W 0 6.3605999999999998 3.1802999999999999 -0.53516839548258754 -1.6267641404285056 -0.23325294633363683
W 1.59015 7.9507499999999993 4.7704500000000003 0.8130442426580613 -1.0511372058202917 -1.86879276454438
W 3.1802999999999999 6.3605999999999998 3.1802999999999999 -1.4541994110912344 -1.5228348001325525 0.091301637853650447
W 4.7704500000000003 7.9507499999999993 4.7704500000000003 -1.4607790010985156 1.3502472179289822 0.1898367064943125
W 6.3605999999999998 6.3605999999999998 3.1802999999999999 -1.1911811227038671 -1.7162524466364757 -0.96788605043518583
W 7.9507499999999993 7.9507499999999993 4.7704500000000003 -0.70703211850432146 -1.0579585445805773 0.99322693571571807
W 9.5409000000000006 6.3605999999999998 3.1802999999999999 -0.40435825316049329 0.71043398932255253 0.88072036581472091
W 11.13105 7.9507499999999993 4.7704500000000003 0.29486773821410711 1.7756465844052529 -1.9188499381217556
W 0 9.5409000000000006 3.1802999999999999 -1.7376287948928193 0.04206500486431583 -0.2279256507928038
Be 1.59015 11.13105 4.7704500000000003 -6.3046958287208277 0.91980940742813888 -0.64679955425262625
Be 3.1802999999999999 9.5409000000000006 3.1802999999999999 -8.1536022431400426 1.4910873392287194 -7.2170138953257172
W 4.7704500000000003 11.13105 4.7704500000000003 -1.0520158987894528 -0.77551208280763584 -0.88360750891405071
W 6.3605999999999998 9.5409000000000006 3.1802999999999999 -0.98090269600604851 -0.91856021563584112 1.7997545702230471
W 7.9507499999999993 11.13105 4.7704500000000003 1.4562533693320339 -1.3952876791614022 0.26301658355825214
W 9.5409000000000006 9.5409000000000006 3.1802999999999999 0.47424437517213008 1.8641073235021988 1.8055076007109552
W 11.13105 11.13105 4.7704500000000003 -0.42259308713642157 -1.8617475982987421 1.1085202240729992
W 0 0 6.3605999999999998 -0.045392920292012119 0.39942130715163554 0.78214750706755776
W 1.59015 1.59015 7.9507499999999993 -0.5096870557452774 1.1771705604179137 0.63289720980742903
W 3.1802999999999999 0 6.3605999999999998 -1.8319383662091189 -0.68339129604410787 -0.4769724209380628
W 4.7704500000000003 1.59015 7.9507499999999993 0.16983772929033522 -0.66306489439464089 0.78010629035227697
W 6.3605999999999998 0 6.3605999999999998 -0.91553812543123048 -0.43065450351527668 0.76489491773619867
W 7.9507499999999993 1.59015 7.9507499999999993 -0.3650232071777656 1.3370890681420091 1.9013068037593395
W 9.5409000000000006 0 6.3605999999999998 1.8996065421892558 -1.6030145510015728 1.8292171056051083
W 11.13105 1.59015 7.9507499999999993 1.3843706223901591 2.0220676780255133 -1.4727008332527258
W 0 3.1802999999999999 6.3605999999999998 -1.0314985238895753 -0.36075492581332735 0.48449491061221356
W 1.59015 4.7704500000000003 7.9507499999999993 -0.5543949989911231 -0.60757139285661077 1.497322632884277
W 3.1802999999999999 3.1802999999999999 6.3605999999999998 0.7295656804071341 1.9717810014406494 0.22900135924917875
W 4.7704500000000003 4.7704500000000003 7.9507499999999993 0.68394605933282904 1.0725056810213769 0.10216388394783887
W 6.3605999999999998 3.1802999999999999 6.3605999999999998 0.92597120390809018 0.57210071758401138 1.7665733000522501
W 7.9507499999999993 4.7704500000000003 7.9507499999999993 -1.4543979091541439 -0.80698276950522041 1.0017367514539213
Be 9.5409000000000006 3.1802999999999999 6.3605999999999998 1.5796299049006766 -4.9435981788873997 4.084487718529811
W 11.13105 4.7704500000000003 7.9507499999999993 -0.42396534839792455 -0.61328877671519855 -1.3985414776864245
W 0 6.3605999999999998 6.3605999999999998 1.8697802647675048 -0.44414640930376736 0.91893687143922731
W 1.59015 7.9507499999999993 7.9507499999999993 -1.1801032986564135 -1.9236764825108403 1.6360695749632939
W 3.1802999999999999 6.3605999999999998 6.3605999999999998 0.48732674851227409 -1.120937515622149 0.08000283942270435
W 4.7704500000000003 7.9507499999999993 7.9507499999999993 -1.1193968096683213 1.3160314803865512 0.51121013091296863
W 6.3605999999999998 6.3605999999999998 6.3605999999999998 -0.41318393743218779 -1.7505185030604813 -1.4922220686436303
W 7.9507499999999993 7.9507499999999993 7.9507499999999993 -0.86163042340829188 1.9980922064825635 0.77244633878720137
W 9.5409000000000006 6.3605999999999998 6.3605999999999998 1.7007431032162792 -0.99342986595307103 -0.41167638880085972
W 11.13105 7.9507499999999993 7.9507499999999993 1.731862118141364 -0.68530365883623212 -0.20198207661669876
W 0 9.5409000000000006 6.3605999999999998 -1.2489634465351565 -0.38161533253674967 -1.6435891307553594
W 1.59015 11.13105 7.9507499999999993 -1.3435350485025419 -1.4590118123085083 -1.0181200986172869
W 3.1802999999999999 9.5409000000000006 6.3605999999999998 -0.30457500530314763 0.23576551488161221 1.5333401328152627
W 4.7704500000000003 11.13105 7.9507499999999993 -0.45152105893286731 -1.8130927078714527 0.34545089882290647
W 6.3605999999999998 9.5409000000000006 6.3605999999999998 -0.65056168006935466 -0.1293996710107404 -1.0563526086198312
W 7.9507499999999993 11.13105 7.9507499999999993 -1.8673241083176213 0.23376025612816456 0.24702805517547347
W 9.5409000000000006 9.5409000000000006 6.3605999999999998 1.0979378062870682 1.7323884789357242 0.40378674544642773
W 11.13105 11.13105 7.9507499999999993 -0.87035661146938514 1.2093725256778107 -1.1178751755993543
W 0 0 9.5409000000000006 0.10637520791057056 -1.5993015768077605 -0.59896920209539084
W 1.59015 1.59015 11.13105 0.43126652557031941 0.79298642791641172 -1.4995222500171375
W 3.1802999999999999 0 9.5409000000000006 -0.79252686822333851 0.49496867804731781 2.051256468942618
W 4.7704500000000003 1.59015 11.13105 -0.89183294900244214 0.8853662886155832 -0.79064049962436689
W 6.3605999999999998 0 9.5409000000000006 -0.39385207334439887 -1.0005966951203233 0.6956950155161854
W 7.9507499999999993 1.59015 11.13105 -0.41996171416986511 1.843648111176363 -1.6837201483097619
W 9.5409000000000006 0 9.5409000000000006 0.026896500499679895 -0.23497563009993835 -0.69156643326835765
W 11.13105 1.59015 11.13105 0.27123067379173393 1.6043842840980425 0.65404927282914038
W 0 3.1802999999999999 9.5409000000000006 -0.38303405722257444 -1.5226035630973089 -0.074306484755726376
W 1.59015 4.7704500000000003 11.13105 -0.083894108366513828 1.6313891700558665 0.70016248424347105
W 3.1802999999999999 3.1802999999999999 9.5409000000000006 -0.29902425415303574 0.33103369410071237 -1.8899254136253187
W 4.7704500000000003 4.7704500000000003 11.13105 0.22907701003474182 -1.8226810133986442 1.2751588610745246
W 6.3605999999999998 3.1802999999999999 9.5409000000000006 1.9397360502526855 0.22013779635230907 -1.7931508567586558
W 7.9507499999999993 4.7704500000000003 11.13105 2.0037028001101054 1.5269245548266774 -0.51673995495310454
W 9.5409000000000006 3.1802999999999999 9.5409000000000006 -1.3306405671643604 0.50206041947299651 -0.31811460799125107
W 11.13105 4.7704500000000003 11.13105 1.4262815015059669 1.3686515111352329 1.5581106041950752
W 0 6.3605999999999998 9.5409000000000006 1.6983813196768545 -0.16783607361955752 1.2644645760408684
W 1.59015 7.9507499999999993 11.13105 -1.66873237771973 -0.89041811502959956 0.69898950786704694
W 3.1802999999999999 6.3605999999999998 9.5409000000000006 -1.2914994888847604 1.9207092857724797 0.89257860046878501
W 4.7704500000000003 7.9507499999999993 11.13105 0.77682872770127731 -1.9239509928785432 1.0743827989222314
W 6.3605999999999998 6.3605999999999998 9.5409000000000006 1.3604433847443775 1.0258729858362488 -1.6158121212963645
Be 7.9507499999999993 7.9507499999999993 11.13105 -0.16344659540711176 -0.88843219352753233 6.2400528836998648
W 9.5409000000000006 6.3605999999999998 9.5409000000000006 0.35093181413176955 -0.073520396412273578 -1.959466387217476
W 11.13105 7.9507499999999993 11.13105 -1.7846888986731388 -0.75534931186647247 1.67533886185866
W 0 9.5409000000000006 9.5409000000000006 -2.003685154625789 1.8507342071058039 -0.095966106569551304
W 1.59015 11.13105 11.13105 1.3338901781097214 0.46711621102146178 -0.084124831046565512
W 3.1802999999999999 9.5409000000000006 9.5409000000000006 -0.34488366164208084 -0.54632292490850032 1.6900440549800007
W 4.7704500000000003 11.13105 11.13105 1.9528311486017293 1.5009711557512038 0.90145096952253756
W 6.3605999999999998 9.5409000000000006 9.5409000000000006 -0.14492846822819344 0.98517338265656995 -0.86452616560868178
W 7.9507499999999993 11.13105 11.13105 1.4107893088499199 0.31994387337375296 -1.8841295701996983
W 9.5409000000000006 9.5409000000000006 9.5409000000000006 1.8538901174588713 -0.077259945194660326 0.022080810315028527
W 11.13105 11.13105 11.13105 1.3266622409741671 0.54744599208512212 0.69951718251323525
