768
Lattice="21.8 0.0 0.0 0.0 21.8 0.0 0.0 0.0 21.8" Properties=species:S:1:pos:R:3 pbc="T T T"
U 21.7610541675 0.0363125707 21.7816309459
U 2.7629942437 2.7169163354 21.7714368213
U 21.7976782597 2.6951188838 2.7328699492
U 2.6751010890 21.7894513911 2.7135650141
O 1.3528037445 1.3537751437 1.3494621493
O 4.0587863084 1.4132820861 1.4015258260
O 1.3878463784 4.0399935082 1.4081742910
O 4.1150671335 4.0850478291 1.3668344011
O 1.3559117688 1.3723936813 4.1422048094
O 4.1242089656 1.4066283697 4.1314744720
O 1.3903791465 4.0927436845 4.0741045534
O 4.0375814382 4.0696541427 4.0985519028
U 5.5025961700 0.0066247937 21.7572980099
U 8.2181229745 2.7029626702 21.7575626951
U 5.3958163041 2.7125464913 2.7609763194
U 8.2239185388 21.7684356448 2.7150433222
O 6.7995085030 1.4199632462 1.3977637666
O 9.5505261101 1.3552190106 1.3187647289
O 6.8401885861 4.1449607260 1.3538668568
O 9.5886961865 4.0514520122 1.3425067414
O 6.7846213704 1.4094081839 4.0501011382
O 9.5659161632 1.4194236037 4.0715235515
O 6.7930743042 4.0538618039 4.0639551942
O 9.5749553523 4.1062828799 4.0642774982
U 10.8562954104 21.7980503185 0.0504920457
U 13.6200159461 2.7268961857 0.0196888379
U 10.8431006439 2.6832870240 2.7711122978
U 13.5792492294 21.7782342146 2.6884460162
O 12.2600722965 1.3549367764 1.4169942462
O 14.9428966317 1.3595192629 1.3072612831
O 12.2931248380 4.1259233718 1.3422440204
O 15.0315266435 4.1320912708 1.3754589578
O 12.2421137948 1.3503661339 4.0714405000
O 15.0308400429 1.3483491167 4.0320432291
O 12.3164241939 4.0789311242 4.1376254020
O 14.9495014476 4.0430801403 4.1068513018
U 16.3348672207 21.7688383618 21.7883166947
U 19.0566982338 2.7114164578 0.0255884534
U 16.3006655459 2.6813424830 2.6867652502
U 19.0579152421 21.7683216615 2.7068685483
O 17.7131625899 1.3506020767 1.3403647112
O 20.4367404047 1.3153644594 1.3078104592
O 17.6552374341 4.0764974881 1.3346402515
O 20.3989041742 4.0609648613 1.3616601177
O 17.7154389908 1.3406684483 4.1044452091
O 20.4867662243 1.3859616809 4.0689453324
O 17.7294283620 4.1420192409 4.0882655675
O 20.4122573343 4.0944155382 4.0620957155
U 21.7697933929 5.4717824152 0.0014417841
U 2.7658354392 8.1798824414 0.0417591779
U 21.7866012427 8.1255160415 2.7436545984
U 2.7337945126 5.3961479892 2.6936313963
O 1.3334840355 6.8223172642 1.3364427810
O 4.0914075426 6.7640429615 1.3853349969
O 1.4160118645 9.5080008222 1.3202000964
O 4.0586700218 9.5078478532 1.4196798118
O 1.3822581614 6.8164052845 4.0534346069
O 4.1343390605 6.8183108134 4.0585666726
O 1.3123414094 9.4952841746 4.0314671914
O 4.0482082056 9.5384099264 4.0973975757
U 5.4166256592 5.5056042667 0.0431612784
U 8.2112903850 8.2237741680 21.7429980071
U 5.4660931868 8.2320635329 2.7386570794
U 8.1309619925 5.4031586569 2.7691437950
O 6.8359898881 6.8152354725 1.3311135335
O 9.5140696432 6.8051936263 1.3549413271
O 6.7591875532 9.5154482797 1.3700028574
O 9.5715195463 9.5568538877 1.3691566407
O 6.8168478032 6.8347730602 4.0463509663
O 9.4930799414 6.8127667351 4.0750948821
O 6.8555822209 9.5871780366 4.0632912555
O 9.5344711724 9.5150409748 4.0741806240
U 10.9318777244 5.4266094975 21.7968715916
U 13.6278267665 8.2138297927 0.0434635360
U 10.9016056384 8.1794240629 2.7689956707
U 13.6628583353 5.3935039603 2.7803399964
O 12.3171832909 6.7869775121 1.3968008486
O 14.9530058592 6.8615682374 1.3841651123
O 12.3032289227 9.5084574974 1.3391292984
O 14.9776851041 9.5121440003 1.3622679108
O 12.2753251444 6.8207897729 4.0915743131
O 14.9707804720 6.8092159598 4.0694627026
O 12.2362973812 9.5742597625 4.0310489966
O 15.0080729702 9.5772224074 4.0885405746
U 16.4013128422 5.3959064862 21.7492256087
U 19.0595474258 8.1865771167 21.7655355325
U 16.3100350258 8.1669865313 2.7673538693
U 19.1105487665 5.4714619697 2.7617607659
O 17.7451847546 6.7639025009 1.3912017106
O 20.4818289249 6.7671367690 1.3709808801
O 17.7286415176 9.5876277666 1.3115232051
O 20.4095605927 9.5058300149 1.4015331011
O 17.6983478303 6.8550702923 4.0925494043
O 20.4578793685 6.8461458028 4.0540787854
O 17.7265346970 9.5063064573 4.0806883613
O 20.4343869251 9.5931045695 4.0731803849
U 0.0216038921 10.9318199847 21.7838960487
U 2.7061673905 13.6712689212 21.7981105737
U 21.7851853746 13.6269864593 2.7234225525
U 2.7776940605 10.9455421551 2.6877463722
O 1.3589671590 12.3183954579 1.3404644520
O 4.0730674462 12.2582326872 1.4026601818
O 1.3725211162 14.9766485794 1.3736308056
O 4.1394850166 15.0069048169 1.3935614254
O 1.3853074562 12.3109090056 4.0940279559
O 4.0366050527 12.2271770540 4.0517989524
O 1.3931944452 14.9817606524 4.0542897490
O 4.0945668143 14.9458610692 4.1181201855
U 5.4805908757 10.8638324882 0.0281343973
U 8.1863533303 13.5715318141 0.0023686151
U 5.4148155228 13.6395261054 2.7358090290
U 8.1963450103 10.8902948297 2.7600333212
O 6.7967158445 12.2828616251 1.3972547999
O 9.5032793026 12.2554345543 1.3333806466
O 6.8071535301 14.9364950844 1.3485831781
O 9.5686660055 15.0376990211 1.4193786928
O 6.7950817447 12.2903716020 4.0792070968
O 9.5403886539 12.3102576634 4.0588776132
O 6.8052991396 14.9464988459 4.0863576937
O 9.4998226980 14.9855177866 4.1199752668
U 10.8991998871 10.8830311890 0.0011771629
U 13.6319456681 13.5680819745 0.0514264425
U 10.8604005713 13.6827262214 2.7600857758
U 13.5831331600 10.8970205766 2.7682360962
O 12.2144731622 12.2169402795 1.3101614523
O 14.9688351240 12.3093482998 1.3688472764
O 12.2907997120 14.9590589657 1.3180105365
O 14.9651317978 14.9697457162 1.3572467955
O 12.2939263217 12.3146580274 4.0849239223
O 14.9709336147 12.3027580237 4.1161469660
O 12.2257454081 14.9697661800 4.0446125907
O 14.9531673729 14.9922545692 4.0415655028
U 16.3083105434 10.8566260223 0.0308448011
U 19.0759569180 13.5842084927 0.0465738060
U 16.3072647145 13.6061510297 2.6990957545
U 19.0762668740 10.9428576046 2.7133318856
O 17.7689272185 12.2180868098 1.3370096036
O 20.4893551988 12.3110573056 1.3792703679
O 17.7676839084 14.9756302535 1.3366443603
O 20.4886566665 14.9694000641 1.3081472255
O 17.7283166901 12.2211959409 4.0897216815
O 20.4242939179 12.2631190582 4.1137380241
O 17.6747743094 14.9918987100 4.0957004888
O 20.3827680286 14.9735558724 4.0347077096
U 0.0386173446 16.3492331516 21.7974344460
U 2.6830358433 19.0848311184 21.7964877011
U 21.7893432404 19.0769370583 2.7130357722
U 2.6919690657 16.3802061396 2.7569100113
O 1.3323425709 17.7667433547 1.3363511461
O 4.0640048125 17.6830930673 1.3069105304
O 1.3137668144 20.4416301685 1.3604782903
O 4.0764560290 20.4430198077 1.3937975648
O 1.4156384860 17.7256377559 4.0736497868
O 4.0974271928 17.7028407365 4.0528317619
O 1.4020922093 20.3965695728 4.0307767186
O 4.1240064678 20.4263699078 4.0714718552
U 5.4590388706 16.3027716159 21.7861666477
U 8.1399124302 19.0460092857 21.7664788193
U 5.4592489806 19.1215906494 2.7029284317
U 8.1802616499 16.3873008147 2.7159091311
O 6.8011992831 17.7018093843 1.3604958411
O 9.4853054198 17.7364601015 1.4014254194
O 6.7874479742 20.4315707907 1.3272253533
O 9.5304620810 20.4163976561 1.3464404073
O 6.8003146233 17.6888837387 4.0438239604
O 9.5075400053 17.6605390615 4.0312890610
O 6.8643860501 20.4125432189 4.0493789925
O 9.5574835176 20.4116329594 4.1095185583
U 10.8828660572 16.4050671879 21.7712249124
U 13.6633324546 19.0356471033 21.7779994930
U 10.9293096025 19.0953821357 2.7497821126
U 13.6413815048 16.3438064518 2.7220702064
O 12.2842619964 17.7398007269 1.3310537270
O 14.9887723442 17.7387488912 1.4094821058
O 12.2488462158 20.3983149035 1.3490797639
O 14.9930793313 20.4020452139 1.3235421357
O 12.3003807928 17.6869330121 4.0369363402
O 15.0450582918 17.7513631562 4.0373629453
O 12.2445543642 20.4546176963 4.0357481162
O 15.0080836038 20.4148879439 4.0425710492
U 16.3629157065 16.3365775536 21.7819182371
U 19.0789681338 19.1188354382 0.0538665635
U 16.3499300368 19.0351319736 2.7213456231
U 19.0886732969 16.3390643856 2.7676711325
O 17.6630364281 17.7195924661 1.3177470017
O 20.4225829405 17.7075029473 1.3491510495
O 17.6817441888 20.4103540524 1.3556842257
O 20.4251870967 20.4088624651 1.4027212730
O 17.7123563791 17.7149133847 4.1204703111
O 20.4898345252 17.7462321569 4.0575074566
O 17.7520272333 20.3875521502 4.0481906068
O 20.4224655098 20.3892690102 4.0578027157
U 0.0401983806 0.0001641439 5.4412488130
U 2.7684318408 2.7580918192 5.4537936845
U 21.7614713340 2.6786869735 8.1787416055
U 2.7267819589 21.7927958292 8.1345170253
O 1.3836343897 1.3868751076 6.7716272377
O 4.0542359498 1.3076325316 6.8315787367
O 1.3397933262 4.0812341146 6.8677176241
O 4.1118619601 4.1274050745 6.7585680961
O 1.4129128020 1.3510695855 9.5855334140
O 4.0533003605 1.3294005687 9.5799154165
O 1.4136670512 4.0749065321 9.5019506924
O 4.1405843324 4.0989942970 9.5376109073
U 5.4285704777 0.0493970091 5.4137589351
U 8.2324330691 2.7395079415 5.4401782757
U 5.3943710458 2.7613700886 8.1538881570
U 8.2088043619 21.7775684298 8.2174559795
O 6.7989971396 1.4190413145 6.8101961355
O 9.5620478361 1.3755429371 6.8243598502
O 6.7843855032 4.0436693207 6.8559132589
O 9.5675459673 4.1005194797 6.8317303508
O 6.8661013788 1.3350322620 9.4839316615
O 9.5027910311 1.3412175725 9.4943070586
O 6.7782805344 4.0411006896 9.5195055003
O 9.5746577409 4.1100040091 9.5716354674
U 10.9464507519 21.7941531710 5.4679305663
U 13.6489714902 2.7209593875 5.4890193328
U 10.8746632739 2.6688631649 8.1716828956
U 13.6413380339 21.7607579736 8.1401502240
O 12.2261475104 1.4026019367 6.8376644281
O 15.0240570961 1.4179414604 6.8268898479
O 12.3099744531 4.0752375139 6.8323353198
O 14.9638696881 4.1381999671 6.7983154515
O 12.2934038621 1.3599314684 9.5744143128
O 14.9861290598 1.3583064158 9.5651886751
O 12.2367457003 4.0383709978 9.5951895926
O 14.9731106678 4.0496051047 9.5173401440
U 16.3072429313 21.7458328656 5.4379050512
U 19.1206188966 2.6770070295 5.5005141110
U 16.3157931496 2.6809959156 8.1435722597
U 19.0997444291 21.7454023439 8.1958319582
O 17.6735591868 1.4010204680 6.8593414263
O 20.4236157434 1.3088823849 6.8549356211
O 17.7248779677 4.1232622049 6.8687453224
O 20.4595996491 4.1405213376 6.8654971044
O 17.7139975780 1.3142565554 9.5221283251
O 20.3861235568 1.3855157052 9.5464323490
O 17.6678161771 4.0422208201 9.5264115629
O 20.4634162533 4.1019633709 9.5159126133
U 0.0411577466 5.4664248288 5.4794409775
U 2.7444276950 8.1784376141 5.4297439505
U 21.7769274985 8.2265109416 8.2105669277
U 2.7150957929 5.4412893471 8.2143226271
O 1.3380923258 6.8386560716 6.8653319557
O 4.1288070709 6.8529634340 6.8287307231
O 1.3916440002 9.5722130471 6.8000448572
O 4.0574387689 9.5106247164 6.8400843584
O 1.3812073250 6.8065129702 9.5368436849
O 4.0837472104 6.8111071460 9.5212424094
O 1.3296186260 9.4875788841 9.5777615296
O 4.0443126305 9.5922605783 9.4973956832
U 5.5039287768 5.4157982661 5.4685392740
U 8.2035978526 8.1778059991 5.4160006833
U 5.3983949567 8.1285408898 8.1547881860
U 8.1531694185 5.4998023255 8.2054103489
O 6.7881789113 6.8434323886 6.7719300895
O 9.5778968412 6.8467731408 6.7564255231
O 6.7877868610 9.4962613067 6.8309161345
O 9.5263901753 9.5379038537 6.8181531674
O 6.8452570303 6.8602626203 9.5535697355
O 9.5932956607 6.7928930730 9.4921086667
O 6.8192726734 9.5713874599 9.5227800409
O 9.5831804487 9.5484333654 9.4949792238
U 10.8936013955 5.4368064109 5.4861887324
U 13.6661950442 8.1402511783 5.4078810049
U 10.8912539311 8.1992409144 8.2176091027
U 13.6166861650 5.4655223271 8.2128329682
O 12.2598814326 6.8453704244 6.8434082944
O 15.0353356604 6.7571327961 6.8430678676
O 12.2800819902 9.5289049766 6.7801819301
O 15.0002745507 9.5652305356 6.8070479463
O 12.3121654642 6.8369987131 9.5789884723
O 14.9981718745 6.7650063307 9.5281131032
O 12.2115368283 9.5675160347 9.4827540025
O 15.0447051295 9.5831504395 9.5754493505
U 16.3403992981 5.4612922753 5.4966402620
U 19.0858411023 8.2160824717 5.5020939279
U 16.4001162388 8.1740069395 8.1937058107
U 19.1098838332 5.4750335992 8.2284410904
O 17.6980575218 6.7983865072 6.7756669334
O 20.4033973441 6.8201768777 6.7953904200
O 17.7412586957 9.5067543010 6.7861680146
O 20.4698102543 9.5009781584 6.8356847447
O 17.6829511785 6.7777426761 9.5598096758
O 20.4901293759 6.8594809702 9.5731348168
O 17.6599042852 9.4883401194 9.4999644774
O 20.4818164374 9.5364391501 9.4811472643
U 0.0096405896 10.8868100206 5.4895875879
U 2.7443430075 13.5973306823 5.4699174121
U 21.7726376050 13.6741707274 8.1198893250
U 2.6938077299 10.9219890210 8.1228683418
O 1.3081658509 12.2992602252 6.8363349884
O 4.0330479063 12.2753414758 6.8340045758
O 1.3510337697 14.9628234333 6.7811155627
O 4.0572715498 14.9739347984 6.8268489252
O 1.3374355827 12.2063414055 9.5750290374
O 4.0809027670 12.2703199068 9.5240251336
O 1.3377541931 15.0176285367 9.5482884585
O 4.0807993702 14.9713273012 9.4907752667
U 5.5006339214 10.9518362326 5.4752561674
U 8.1303939917 13.6794587225 5.4682353880
U 5.5026813606 13.6739315812 8.2181413214
U 8.1780227922 10.8773231485 8.2161165899
O 6.8448009070 12.2991677452 6.7791013498
O 9.5420129861 12.2126141698 6.7938945001
O 6.7787333283 15.0244968624 6.8233968300
O 9.5478631223 14.9818753636 6.8294658602
O 6.7783459398 12.3137619392 9.5759744669
O 9.5835774074 12.2114143682 9.5762576472
O 6.8333537306 14.9555569498 9.5197784844
O 9.5149127641 15.0083977123 9.5092460726
U 10.9206479139 10.8474805627 5.4754222959
U 13.6733327939 13.5820747467 5.4698302588
U 10.9085445896 13.5906292336 8.1977350680
U 13.6163447062 10.8470531269 8.1929795635
O 12.3196144935 12.2900766821 6.8386727782
O 15.0116741200 12.2148517376 6.8427357542
O 12.3103044654 14.9646740410 6.8339319795
O 15.0274619895 15.0338169796 6.8385386824
O 12.2150093090 12.2466238300 9.5439655324
O 15.0370756067 12.2324999144 9.5456189322
O 12.2357877696 15.0428058536 9.5825613326
O 15.0249231340 15.0117008698 9.5306575412
U 16.4032684755 10.8562982640 5.4997694928
U 19.0753777466 13.6247664867 5.4463881234
U 16.3809811069 13.5796162239 8.2013447444
U 19.0743206476 10.8987232705 8.1613408412
O 17.7666570838 12.2375575180 6.8204877322
O 20.4013704923 12.3113176480 6.8073118289
O 17.6956082765 14.9969810753 6.8594562755
O 20.4281776836 14.9611889985 6.8505116932
O 17.6777562529 12.2597916892 9.5043237241
O 20.3895312091 12.2120721252 9.5702029859
O 17.7424957316 15.0394418689 9.5758327897
O 20.4072164808 14.9477775704 9.4963258865
U 0.0244915539 16.3566436499 5.4693887065
U 2.7665696534 19.0380779940 5.4181549846
U 21.7708335702 19.1290442771 8.1289933639
U 2.6782188957 16.3300216570 8.1393716243
O 1.3397218010 17.7298132016 6.8691208900
O 4.1274554594 17.6620188469 6.8531245088
O 1.3060946454 20.4886263499 6.8637514993
O 4.0862449174 20.4311191374 6.7842754357
O 1.3745423785 17.6757968661 9.5155511490
O 4.0299782213 17.7495849937 9.5643140123
O 1.4165719597 20.4301948181 9.5069284617
O 4.1084341162 20.4045968132 9.5409874919
U 5.4814519843 16.3975802893 5.4229381951
U 8.1522143914 19.0424051316 5.4142603926
U 5.4712791474 19.1295786119 8.1793282803
U 8.2210188243 16.3986298114 8.1937877612
O 6.8556701371 17.7696184845 6.7939237061
O 9.5494511665 17.6795362417 6.8001151707
O 6.7774429225 20.4366111404 6.8306249418
O 9.5496771970 20.3993694352 6.8349629908
O 6.7603223451 17.7255322534 9.5904481044
O 9.5582920471 17.7481881862 9.5365871926
O 6.7848335759 20.3923762691 9.5570811830
O 9.4980194190 20.3878787630 9.4909758031
U 10.8628936433 16.3489245653 5.4570790474
U 13.6559299412 19.0260321623 5.4807308994
U 10.9483461572 19.0388572389 8.1217073016
U 13.6682257408 16.3198963527 8.1773007031
O 12.2298515863 17.7003459840 6.7568129501
O 14.9643976648 17.7234056870 6.7732381767
O 12.2443540830 20.3875438903 6.8244087000
O 15.0085771957 20.4312917511 6.8282747253
O 12.3173533227 17.7640414437 9.5239900658
O 14.9860737367 17.6644071889 9.5592819797
O 12.2138102472 20.4215759379 9.4997866608
O 14.9407555456 20.4274625557 9.5612365068
U 16.3817300002 16.3275012085 5.4717998323
U 19.0248375039 19.0179681826 5.4463109383
U 16.3719388347 19.1125078714 8.1391814248
U 19.0886605703 16.3279893009 8.2000359969
O 17.7037689692 17.7149230859 6.8053052626
O 20.4383657212 17.7243746882 6.7719370623
O 17.7051032553 20.4751207626 6.8115936258
O 20.4294517174 20.4372935422 6.7633484758
O 17.6828478543 17.7646874016 9.5698427395
O 20.4648690860 17.6961680982 9.4831030806
O 17.7434819378 20.3812956962 9.5553829079
O 20.4613269774 20.4254729648 9.5386545581
U 21.7430721973 21.7908284050 10.9561057690
U 2.7163259025 2.7357603656 10.9356076381
U 0.0108450597 2.7359598284 13.6117413336
U 2.7732193170 21.7740587407 13.6405095624
O 1.3933555574 1.3819284673 12.2738003352
O 4.0677831861 1.3485513096 12.2427174253
O 1.3563814647 4.0636932795 12.2254086547
O 4.0575166291 4.0708748320 12.2700406670
O 1.3463107059 1.4132212771 15.0342604971
O 4.1209508145 1.4183848954 14.9675228068
O 1.3284331181 4.0704587393 14.9311378714
O 4.0730880320 4.0659772765 15.0271330914
U 5.4945384117 21.7929463330 10.8793006855
U 8.1859174227 2.6701424494 10.9072543050
U 5.4700163477 2.7130985771 13.5836510678
U 8.2139901947 0.0197954869 13.5695572740
O 6.8172752064 1.3300885829 12.3102955057
O 9.5128061831 1.3742759628 12.3157292575
O 6.8643468092 4.1398733300 12.3047142556
O 9.5720330509 4.0641640942 12.2492533246
O 6.8080946246 1.3760033874 15.0098935650
O 9.5546425007 1.4013073507 15.0139812386
O 6.8158014513 4.1048016507 14.9333422239
O 9.5056560546 4.1097774725 14.9794998735
U 10.8889457257 21.7449346463 10.9042700170
U 13.6336375047 2.7701348173 10.8978347253
U 10.8497841452 2.7490742985 13.5969656264
U 13.5735748598 21.7754918687 13.6713292570
O 12.2410714320 1.3142127107 12.2975086537
O 14.9568726580 1.3291720966 12.2329799706
O 12.2428780921 4.1372288289 12.3093011395
O 15.0260625919 4.0554126507 12.3061286981
O 12.3024250267 1.4139405728 15.0360723282
O 14.9947979386 1.3737854058 14.9844281543
O 12.3192018581 4.0664306093 14.9725039964
O 14.9685004573 4.0842395914 15.0262688915
U 16.3864984549 21.7847833954 10.9191274483
U 19.1058278553 2.7184871922 10.9562142118
U 16.3808116842 2.7503347084 13.6594270566
U 19.0749098422 21.7823374973 13.5818080539
O 17.7024467925 1.3817671898 12.2578904983
O 20.3842182418 1.4131194219 12.2672044730
O 17.6665996536 4.1215252305 12.2142502053
O 20.4876917261 4.1309665932 12.2734518694
O 17.7326657144 1.4161036234 14.9873571821
O 20.4119209833 1.3177002261 14.9353943406
O 17.6704024646 4.0650216986 14.9773103592
O 20.4286330473 4.1386673976 14.9735441016
U 21.7679271675 5.5060676450 10.8794759207
U 2.6962396216 8.2248586976 10.8746731007
U 0.0355401901 8.1718947166 13.5809767216
U 2.7539257380 5.4396258970 13.6050388394
O 1.3182834729 6.8095296968 12.2666056499
O 4.1218689412 6.8095904217 12.2546871883
O 1.3238342332 9.5397512829 12.2331512927
O 4.1021384187 9.5156242744 12.2270431029
O 1.3176516530 6.8364423804 15.0363996955
O 4.1283421747 6.8184896697 14.9934094230
O 1.3631128189 9.5252375936 15.0315125078
O 4.1325295578 9.5925029737 14.9401793794
U 5.4638613052 5.4575727687 10.9052957113
U 8.1637074496 8.1992761541 10.8720588773
U 5.4066597608 8.1970027171 13.5735933756
U 8.1719951749 5.4058526303 13.6700226951
O 6.8453446113 6.8617480082 12.2826038334
O 9.5939830201 6.7928058576 12.3136279246
O 6.7559897380 9.4910178226 12.3176362546
O 9.5457833002 9.5813159370 12.2064477662
O 6.8437759449 6.8198207349 14.9876427937
O 9.5429467500 6.8289579229 14.9923142169
O 6.8042710365 9.5355683298 15.0350523789
O 9.5953079958 9.5570340953 14.9480681763
U 10.8816361966 5.4910696467 10.8772651678
U 13.6445897515 8.1969289053 10.9054918556
U 10.8932557389 8.1311903323 13.6159386558
U 13.6308502537 5.4409695800 13.6284336061
O 12.2856916284 6.7817802908 12.2305726136
O 14.9911498931 6.8566713240 12.2950872625
O 12.2353951618 9.5574093793 12.2376412726
O 15.0220375272 9.5536462179 12.2502658324
O 12.2480322115 6.7709834264 14.9356074597
O 14.9387562660 6.8185557236 14.9307933943
O 12.2643925651 9.5098355279 14.9500214733
O 14.9374548391 9.4985226941 14.9337815710
U 16.4076437245 5.4174858337 10.8827998757
U 19.0659375376 8.1846307584 10.9092412915
U 16.3959377322 8.1325575876 13.6202100011
U 19.1083026960 5.4934906886 13.6594846724
O 17.7422265520 6.7639233519 12.2066803433
O 20.4209959391 6.8594471908 12.2401660397
O 17.7360021301 9.5027727500 12.2623767210
O 20.3862336597 9.5830064185 12.2438261951
O 17.6590320217 6.8094324135 14.9759340133
O 20.4439642567 6.8382919810 15.0136112049
O 17.6970125229 9.5478132496 14.9318375763
O 20.3845159777 9.5059279034 14.9374871336
U 0.0270935961 10.8756468587 10.8956414035
U 2.7053916776 13.6282501680 10.9298730259
U 0.0103538629 13.5860246568 13.6205489901
U 2.6967809625 10.8711446198 13.6331631640
O 1.3341175174 12.2817036457 12.2311517625
O 4.0819270291 12.2645053680 12.2591719752
O 1.3734053321 14.9744014018 12.2407387569
O 4.0631260117 14.9686129767 12.2866049119
O 1.3724187525 12.2884094883 14.9514309665
O 4.0504117930 12.2276048471 14.9890384526
O 1.3472208020 15.0420338102 14.9505438041
O 4.1417655958 14.9561390613 14.9691835371
U 5.3955714594 10.8580134489 10.8628114984
U 8.1648898291 13.5749124959 10.9126361419
U 5.4104570377 13.6113053564 13.5958535670
U 8.1320245541 10.8498176036 13.6415594444
O 6.8651290755 12.2457487800 12.2513716206
O 9.5798000011 12.3094653223 12.2919189474
O 6.8455312830 14.9323824972 12.3134371115
O 9.5574558377 14.9550503791 12.2964209889
O 6.7818390296 12.3141975240 14.9333910397
O 9.5936852638 12.2979547750 14.9759398345
O 6.7633653593 15.0208059184 14.9323913459
O 9.5144107967 15.0295427642 15.0450871018
U 10.8789588626 10.8424501815 10.9388485610
U 13.5839283135 13.6519442826 10.9114938364
U 10.8716068750 13.6494953017 13.6087346693
U 13.5785641859 10.8888270492 13.5745026405
O 12.2446523529 12.2158229641 12.2425282244
O 15.0321121928 12.3044771877 12.2980681826
O 12.2774163221 14.9465792646 12.2514987793
O 14.9964859864 14.9656931689 12.2670215023
O 12.2316032838 12.3117180402 15.0355658621
O 14.9673590643 12.2841021645 14.9857518304
O 12.2434461790 15.0341079958 14.9589045717
O 15.0285328887 14.9811614024 14.9706741664
U 16.3704982033 10.9341468136 10.8749317454
U 19.1267405165 13.6157865544 10.9069066477
U 16.3089681325 13.6082147842 13.6767111130
U 19.1014237547 10.8874152081 13.6316813768
O 17.7580446852 12.2632514361 12.2520022632
O 20.4360270200 12.3122844530 12.2898222691
O 17.7253807680 14.9948354346 12.2325681744
O 20.4621681349 15.0349100140 12.3095781183
O 17.7537080074 12.3066676962 14.9556472871
O 20.4742025162 12.2724419002 14.9424168620
O 17.6722796271 15.0343298744 14.9435121327
O 20.4901689849 14.9454808924 15.0264058465
U 0.0276732214 16.2932220273 10.8966294900
U 2.7344780450 19.0536620621 10.9388283920
U 0.0231142451 19.1135368637 13.6823566695
U 2.7417459844 16.3075914525 13.6560502861
O 1.3453140222 17.7405292436 12.2569261805
O 4.0472861760 17.7426690386 12.2475119038
O 1.3970280679 20.4209163331 12.2760786068
O 4.0345227696 20.3968308220 12.2378618024
O 1.3323497914 17.6719017424 14.9818886966
O 4.1392886113 17.6653655709 14.9693117717
O 1.3711405033 20.4060380910 15.0391275684
O 4.0862847183 20.4622895303 14.9641859661
U 5.4186291209 16.3059449442 10.9470523140
U 8.1875977575 19.0371987253 10.9297148648
U 5.4874506467 19.0655472202 13.6718254672
U 8.1791794730 16.3232695961 13.5851498527
O 6.7809780472 17.7247381605 12.2058832408
O 9.5481235181 17.6894967976 12.2313715171
O 6.8446627156 20.4787573620 12.2293129206
O 9.5869955947 20.4760693136 12.2834347656
O 6.8569103929 17.7425084471 15.0150071069
O 9.4903001990 17.7537042073 15.0193984449
O 6.7605422826 20.4354148925 14.9704492704
O 9.5563168867 20.4008454198 15.0447249244
U 10.9487954486 16.3967148292 10.8549174832
U 13.6750300248 19.0479158418 10.8459711442
U 10.9501155408 19.0484813779 13.6411412577
U 13.6039550847 16.3682310173 13.5828687892
O 12.2726508848 17.6695404384 12.2999070566
O 14.9374690305 17.6820120034 12.3164725428
O 12.2352245907 20.4862400270 12.2527370300
O 14.9575420400 20.4884548565 12.2493198577
O 12.2223802085 17.7435533699 15.0197151526
O 14.9653851825 17.7292254663 14.9736424615
O 12.2646951844 20.3967840759 14.9880654900
O 15.0332425591 20.4066469580 14.9805068319
U 16.3249025444 16.3014556015 10.9191909459
U 19.0887166367 19.0477927544 10.9077695991
U 16.3689747037 19.0573265751 13.6324192172
U 19.1164215412 16.4021474755 13.5905168933
O 17.7165956663 17.6680005573 12.2315862481
O 20.4806386135 17.7224915999 12.2840942383
O 17.7484438034 20.4226338336 12.3113434965
O 20.3900491420 20.4785607812 12.3033996209
O 17.7028197643 17.7406850926 14.9408697450
O 20.4413040287 17.6932077699 15.0283561215
O 17.7271923233 20.3810440230 15.0084005509
O 20.3953610766 20.4210180600 15.0415225194
U 0.0170877760 0.0188102315 16.2992385244
U 2.7768181755 2.7746471748 16.2953820875
U 0.0034767786 2.7711396867 19.0447686855
U 2.7593529649 21.7728322315 19.1171520800
O 1.4170815776 1.3938646080 17.7377015517
O 4.0381490397 1.3703249952 17.6659877660
O 1.3846174634 4.0963342576 17.6654678368
O 4.0868242258 4.1112913056 17.6605874106
O 1.3874310269 1.3419920429 20.4292215657
O 4.0843106694 1.3479246478 20.3817024274
O 1.3398137192 4.0517356261 20.4723914124
O 4.0839463599 4.1450427222 20.4259741571
U 5.4972264952 0.0239234316 16.3479638326
U 8.1524296894 2.7173046673 16.3785840498
U 5.4337255894 2.7762518543 19.0940657040
U 8.2062901080 21.7563973979 19.0923176352
O 6.8523791921 1.4060825580 17.7005881493
O 9.5226994835 1.3995931440 17.7244465854
O 6.7758430054 4.0625403293 17.7479330147
O 9.5422015523 4.0571029731 17.7533881696
O 6.8647611685 1.3904631991 20.4552345238
O 9.5947609004 1.3320768033 20.4892594604
O 6.7612588657 4.0662773694 20.4628579811
O 9.4973400155 4.0448624147 20.4475955455
U 10.8667899408 0.0555591900 16.3849818373
U 13.5858511382 2.7449771707 16.3822907730
U 10.8742796839 2.6854736667 19.0961054300
U 13.5897383115 0.0571312618 19.0301507204
O 12.2288216874 1.3790503808 17.7059507422
O 14.9895682565 1.4118956772 17.6942748747
O 12.3016921749 4.0903919832 17.6795428861
O 14.9977180974 4.1223844972 17.6924545106
O 12.2994869283 1.3102532382 20.3859497954
O 15.0173980430 1.4168186963 20.4768290033
O 12.2454281290 4.1264375055 20.4613176401
O 14.9460579821 4.0396799866 20.4447263462
U 16.3361748137 0.0016269502 16.3090895519
U 19.0395654596 2.7706843729 16.3653211178
U 16.3058635994 2.7221566943 19.0221512185
U 19.0917038162 0.0277006767 19.0849458053
O 17.6861296761 1.3893990203 17.7324579790
O 20.3955975575 1.3200508950 17.7208039520
O 17.7680210217 4.0633022164 17.6941142692
O 20.4934979909 4.1373827589 17.7616222289
O 17.7544736346 1.3205715870 20.3804129385
O 20.4032979819 1.3868797990 20.4560826003
O 17.7515784123 4.1153864035 20.4310946378
O 20.4922825618 4.0671753661 20.4746154830
U 21.7454749631 5.4100515130 16.3057049124
U 2.7395419465 8.2140392674 16.3949904076
U 21.7604717636 8.2071095370 19.0663086834
U 2.7140889612 5.4451790066 19.0556275992
O 1.3477857039 6.8068399778 17.6817575046
O 4.0669599668 6.8195366738 17.6780048031
O 1.3705754074 9.4982408359 17.7352522335
O 4.0505791887 9.5592854333 17.7577821298
O 1.3852835903 6.8671799538 20.4945903306
O 4.0312641636 6.8053402358 20.4029422087
O 1.3231320707 9.5291171852 20.4606751414
O 4.1141805072 9.4971723796 20.3899162170
U 5.4441013825 5.4390829927 16.3903396416
U 8.1220764758 8.1730253484 16.3379949365
U 5.4084212398 8.1865840781 19.0861116013
U 8.2160120657 5.4597024772 19.0318595678
O 6.8468459076 6.7718431537 17.7466534501
O 9.5210503149 6.7874013406 17.6987882602
O 6.8460910188 9.5080560760 17.6630616694
O 9.5942292466 9.5412163922 17.7371988595
O 6.8640716129 6.8409736255 20.4364807423
O 9.5622937271 6.8560294382 20.4869589800
O 6.8257254665 9.5716870724 20.4331441940
O 9.5941798334 9.5800917032 20.4446831996
U 10.8497005492 5.3929304073 16.3349135031
U 13.6477457497 8.1195100013 16.3874853188
U 10.8950712087 8.2124026233 19.0620283513
U 13.6500432479 5.4127363595 19.0943116065
O 12.2828687403 6.8290811053 17.6959983639
O 14.9919370072 6.8393245967 17.7103814104
O 12.2144133769 9.4893005154 17.6890025388
O 15.0024455925 9.5547599951 17.7029741979
O 12.3062247278 6.7583649653 20.3888384153
O 14.9735669645 6.8630600914 20.4605623623
O 12.2052258819 9.5885342337 20.4919791355
O 15.0053479736 9.4925507728 20.4031890315
U 16.2990175158 5.4617911827 16.3378155507
U 19.0967719096 8.1593659281 16.3344606070
U 16.3184897765 8.2134047297 19.0875652127
U 19.1320999291 5.4332368688 19.1294148818
O 17.7329273737 6.8402605518 17.6764054429
O 20.4593220757 6.8288233464 17.7102063406
O 17.7442992272 9.5629658605 17.6617660523
O 20.4805826398 9.5742896678 17.7011827292
O 17.6796622861 6.8420693479 20.4196696860
O 20.4726471731 6.8202301854 20.4560149183
O 17.7260232553 9.5401778593 20.4439714693
O 20.4011867785 9.5906154818 20.4644729593
U 21.7557170647 10.9318537309 16.4066317474
U 2.7550821003 13.6661740461 16.3841751463
U 0.0371036398 13.6031781289 19.0986957958
U 2.6941154171 10.9198201643 19.1059921575
O 1.3167919630 12.2425506562 17.6836134489
O 4.0725333553 12.2965312525 17.6604693066
O 1.3213497589 15.0005487381 17.6816052511
O 4.0469097747 14.9517144322 17.6923389732
O 1.3783937107 12.3196671227 20.4667993831
O 4.1229518352 12.2868122097 20.4929771066
O 1.3901512087 15.0077897812 20.4297995265
O 4.0593255244 14.9315385493 20.4653768007
U 5.4321806716 10.9511168483 16.2925351283
U 8.1438484627 13.6038458561 16.3068287902
U 5.4934935717 13.6388736773 19.0969987801
U 8.1207174678 10.8968210452 19.0513652861
O 6.8342131589 12.3129445261 17.6751001010
O 9.5095877336 12.2823218628 17.7029210163
O 6.7853189821 14.9652993095 17.6947498741
O 9.4848585810 14.9303417820 17.7429835512
O 6.7897907695 12.2541866006 20.4673210433
O 9.5685659362 12.2119479080 20.4068432013
O 6.8054209262 14.9459152006 20.4745196649
O 9.5752528823 14.9517602883 20.4751255211
U 10.9110701456 10.9177285167 16.4056728415
U 13.6774797841 13.6777558633 16.3183795324
U 10.9083091211 13.6392463178 19.0526634421
U 13.5707288367 10.9320944590 19.0468075407
O 12.2754836356 12.2715421287 17.6785713888
O 14.9657253723 12.2659950386 17.6954295185
O 12.3104728099 15.0316176500 17.7193230107
O 15.0445055290 14.9518063642 17.7392344629
O 12.2176013778 12.2777548474 20.4166350994
O 14.9308694326 12.2232606393 20.3822145344
O 12.2313525123 14.9616760353 20.4892692679
O 14.9323329164 14.9590133671 20.3804123071
U 16.3045440096 10.9163953817 16.3367777006
U 19.0694211046 13.6144407361 16.3712058212
U 16.2971661767 13.6220822915 19.1000604766
U 19.0596264959 10.8963772903 19.0513171392
O 17.7071580326 12.2232532050 17.7374126553
O 20.4880814067 12.2753394236 17.7588956067
O 17.7390253606 14.9507641004 17.7387688383
O 20.4186977271 14.9677038027 17.7001094172
O 17.6686329836 12.2943178222 20.4358986474
O 20.4664183070 12.2687631913 20.4498519064
O 17.7114099887 15.0131496215 20.4584252410
O 20.4469374371 14.9736907013 20.4926982320
U 21.7495811674 16.3180708085 16.3618933256
U 2.7698214914 19.1265376202 16.3125547186
U 0.0007800867 19.0754198777 19.1295441691
U 2.6884353565 16.3477614453 19.0440237369
O 1.3848875166 17.6867180297 17.6621548404
O 4.1037073039 17.6999772214 17.7049488212
O 1.3504102351 20.4694940107 17.6641003957
O 4.1339956721 20.4142781999 17.6836513646
O 1.4200160544 17.6694821174 20.4257599561
O 4.1179809532 17.6638682298 20.3887147888
O 1.3837842211 20.4646709999 20.3817742724
O 4.1038346693 20.4059903717 20.3872204524
U 5.4811250737 16.3124686344 16.4033979042
U 8.2295082938 19.1108686702 16.3129139769
U 5.4628698893 19.0531349422 19.0611559546
U 8.2031161616 16.3889533569 19.1275504227
O 6.8135813967 17.6550317507 17.7270828279
O 9.5844574747 17.6668575462 17.7439728753
O 6.8288291690 20.4000527681 17.7352016052
O 9.5701213952 20.4112451667 17.7223522147
O 6.7822633848 17.6613448111 20.4338059995
O 9.4826269532 17.7611198267 20.4509914151
O 6.7827315472 20.3991077660 20.4095269105
O 9.5871961893 20.4047550702 20.4360403203
U 10.9321911448 16.3503667169 16.3202677586
U 13.6658887855 19.0418940606 16.3852558760
U 10.9398507113 19.0826123961 19.0264389002
U 13.6437567493 16.3680052226 19.0235852977
O 12.2975466418 17.6808425979 17.6650963747
O 14.9794214860 17.7066931683 17.7164878335
O 12.2710089745 20.4589229545 17.6559105387
O 15.0071364132 20.4894755379 17.7468331291
O 12.2690593539 17.7608806362 20.4421980068
O 14.9385804616 17.7663800087 20.4161083461
O 12.2068292118 20.3996019157 20.4736627429
O 14.9394913828 20.4600024883 20.4928169242
U 16.3886207881 16.3129419915 16.3948652073
U 19.0226143898 19.0348178599 16.3656805295
U 16.2927464463 19.0507446912 19.0521833884
U 19.0333013367 16.3162291060 19.0332944884
O 17.7481009693 17.7205188747 17.7396083242
O 20.3875078508 17.6605038136 17.7172440829
O 17.7521008848 20.4848837591 17.7576925625
O 20.4243446341 20.4231872113 17.7603355669
O 17.7158281706 17.7567719289 20.4624846167
O 20.4252472501 17.6890016830 20.4501986372
O 17.6684260711 20.4190767881 20.4706184721
O 20.4212374131 20.4177766034 20.4558939283
