LAMMPS (4 Jul 2026)
  using 1 OpenMP thread(s) per MPI task
# exaStamp parity counterpart of LAMMPS examples/snap_ttm/snap_ttm_couplage_ttm (Te-dependent SNAP + fix ttm),
# made deterministic: 4^3 TTM grid = exaStamp 4^3 cell grid (grid_subdiv 1), non uniform initial Te (ttm_grid.in,
# 1.5/2.5/3.5/4.5 eV along x), Langevin coupling off (gamma_p > 0 is required: 1e-50 -> noise ~1e-18 eV/ang,
# gamma_s 0), so Te only evolves by diffusion. NEEDS the fix ttm pre_force patch (src/EXTRA-FIX/fix_ttm.cpp):
# without it f_twotemp is set after the pair style (one step late).
variable nsteps index 100
units           metal
boundary        p p p
lattice         fcc 4.078
Lattice spacing in x,y,z = 4.078 4.078 4.078
region          box block 0 4 0 4 0 4
create_box      1 box
Created orthogonal box = (0 0 0) to (16.312 16.312 16.312)
  1 by 1 by 1 MPI processor grid
create_atoms    1 box
Created 256 atoms
  using lattice units in orthogonal box = (0 0 0) to (16.312 16.312 16.312)
  create_atoms CPU = 0.001 seconds
mass            1 196.9665

#              seed   C_e       rho_e    kappa_e   gamma_p gamma_s v_0     Nx Ny Nz
fix twotemp all ttm 342785 1.2470e-5 0.087614 0.0005365 1e-50   0.0     58.4613 16 16 16 infile ttm_grid.in

pair_style hybrid/overlay zbl 2.0 3.5 snap_ttm
pair_coeff 1 1 zbl 79 79
pair_coeff * * snap_ttm dir.inputs/Au.snapcoeff dir.inputs/Au.snapparam dir.inputs/Au.snapbetas Au f_twotemp
Reading potential file dir.inputs/Au.snapcoeff with DATE: 2017-09-18
SNAPTTM Element = Au, Radius 4.25, Weight 1
SNAPTTM keyword rcutfac 0.5
SNAPTTM keyword twojmax 8
SNAPTTM keyword rfac0 0.99363
SNAPTTM keyword rmin0 0.0
SNAPTTM keyword bzeroflag 0
SNAPTTM keyword quadraticflag 0

compute avgte all reduce ave f_twotemp
thermo          1
thermo_style    custom step temp pe ke etotal press c_avgte
thermo_modify   norm yes format float %.16g

timestep 1.0e-3
neighbor 1.0 bin
neigh_modify once no every 1 delay 0 check yes

displace_atoms all move 0.1 0.07 0.05 units box   # move atoms off the subcell boundaries (even subdiv)
Displacing atoms ...
velocity all create 600.0 3423 dist gaussian
write_dump all custom init.dump id type x y z vx vy vz modify sort id format float %.17g
WARNING: Calling write_dump before a full system init (src/write_dump.cpp:87)
fix 1 all nve
run             ${nsteps}
run             100
Neighbor list info ...
  update: every = 1 steps, delay = 0 steps, check = yes
  max neighbors/atom: 2000, page size: 100000
  master list distance cutoff = 5.25
  ghost atom cutoff = 5.25
  binsize = 2.625, bins = 7 7 7
  2 neighbor lists, perpetual/occasional/extra = 2 0 0
  (1) pair zbl, perpetual, half/full from (2)
      attributes: half, newton on
      pair build: halffull/newton
      stencil: none
      bin: none
  (2) pair snap_ttm, perpetual
      attributes: full, newton on, cut 5.25
      pair build: full/bin/atomonly
      stencil: full/bin/3d
      bin: standard
Per MPI rank memory allocation (min/avg/max) = 4.814 | 4.814 | 4.814 Mbytes
   Step          Temp          PotEng         KinEng         TotEng         Press         c_avgte    
         0  600 -15966.97776316072 0.07725313353515627 -15966.90051002718 624576.202312358 33363.0093927265
         1  597.2044455930146 -15966.97740318354 0.07689319130531021 -15966.90050999223 624584.6490194155 33363.0093927265
         2  594.7939762276944 -15967.19874581339 0.07658283078570773 -15967.12216298261 655133.8343795241 34740.05931951319
         3  592.5416818795098 -15967.07166215006 0.07629283612563977 -15966.99536931393 654021.1346777198 34809.8491905159
         4  590.2719635936395 -15966.96382928588 0.07600059804259721 -15966.88782868784 651837.3928793499 34813.38619088158
         5  587.8802596113106 -15966.87997296334 0.07569265366405818 -15966.80428030968 650180.6023153884 34813.56544857912
         6  585.2879301282295 -15966.81256358843 0.07535887770451886 -15966.73720471073 648915.4683891212 34813.57453348688
         7  582.4329159267667 -15966.75688754795 0.07499127971560157 -15966.68189626824 647930.7893879445 34813.57499391637
         8  579.2664353500414 -15966.71007860031 0.07458357880421786 -15966.63549502151 647159.1359737229 34813.57501725139
         9  575.7508303463551 -15966.67026085671 0.07413092629954011 -15966.59612993041 646556.3194492639 34813.57501843396
        10  571.8578522738014 -15966.63612062233 0.07362968504139274 -15966.56249093729 646091.5572339144 34813.57501849397
        11  567.5672474817303 -15966.60668586647 0.07307724726647866 -15966.53360861921 645742.2275666778 34813.5750184969
        12  562.8655901490323 -15966.58120524205 0.07247188433021289 -15966.50873335772 645490.9636245626 34813.57501849715
        13  557.7453190074547 -15966.55907816578 0.07181262267981871 -15966.4872655431 645323.9634242957 34813.57501849721
        14  552.2039382023783 -15966.5398125396 0.07109914096097918 -15966.46871339863 645229.9611280056 34813.57501849717
        15  546.243348726472 -15966.52299801765 0.07033168393642845 -15966.45266633371 645199.5723704426 34813.57501849715
        16  539.869283680446 -15966.50828828642 0.06951098977282441 -15966.43877729665 645224.8583157229 34813.57501849721
        17  533.09082661176 -15966.49538872827 0.06863822802434189 -15966.42675050025 645299.0219914319 34813.57501849704
        18  525.9199969330907 -15966.48404741057 0.06771494625313505 -15966.41633246432 645416.1876192796 34813.57501849705
        19  518.3713900098873 -15966.47404821187 0.06674302368873064 -15966.40730518818 645571.2341971906 34813.57501849708
        20  510.4595552291661 -15966.4624357235 0.06572433364069208 -15966.39671138986 645581.2184038926 34807.98241829995
        21  502.2037276525482 -15966.45477523582 0.06466135272365925 -15966.3901138831 645811.1244095059 34808.35858971514
        22  493.6270427480838 -15966.4479629117 0.06355705974997002 -15966.38440585195 646066.1849548246 34808.71250092131
        23  484.7515461972466 -15966.44188067098 0.06241429321624894 -15966.37946637776 646343.2537587318 34809.04467278306
        24  475.599291325486 -15966.43798032667 0.06123589260332243 -15966.37674443406 646737.4624697403 34812.35940087628
        25  466.1948914508341 -15966.43295370633 0.06002502700443161 -15966.37292867933 647043.3358228977 34812.43957854072
        26  456.5630234928307 -15966.42960597995 0.0587848737018439 -15966.37082110625 647446.9015211686 34815.11200071035
        27  446.7301084175521 -15966.42538541641 0.05751883453292665 -15966.36786658188 647774.4700648237 34815.0011831265
        28  436.7254553475827 -15966.42152577547 0.05623068320028122 -15966.36529509227 648113.4364906144 34814.89887643204
        29  426.5770022571924 -15966.41652941087 0.05492401686400257 -15966.36160539401 648368.6230462408 34811.8593413682
        30  416.3127936715817 -15966.41335717553 0.05360244640317443 -15966.35975472912 648732.2222470352 34811.97738183643
        31  405.9608935468545 -15966.41041611485 0.05226958519871085 -15966.35814652965 649102.1844713954 34812.08774546967
        32  395.5498379232903 -15966.40852846827 0.05092910741482894 -15966.35759936086 649530.3746483086 34813.86843993539
        33  385.108093723986 -15966.40699810887 0.04958467831654761 -15966.35741343055 649973.1939374433 34816.05484057104
        34  374.663741396715 -15966.40445996271 0.04823991340816947 -15966.3562200493 650341.9824905785 34815.87957915208
        35  364.2449340576418 -15966.4013920755 0.04689843755043198 -15966.35449363795 650668.0130882828 34814.36727200838
        36  353.8795215202195 -15966.39918553816 0.04556383655226454 -15966.3536217016 651040.0920579344 34814.31121850627
        37  343.5947469680881 -15966.39709622023 0.04423961811583989 -15966.35285660212 651409.9470546478 34814.25920794281
        38  333.4187772366429 -15966.39460324059 0.04292940886831816 -15966.35167383172 651742.1837283868 34813.12703196186
        39  323.3778085109442 -15966.39134390763 0.04163658170533695 -15966.34970732593 652017.9169407903 34810.30821187116
        40  313.4974752971407 -15966.38839336793 0.04036443720344061 -15966.34802893073 652300.2570812845 34807.8876229834
        41  303.8028517374893 -15966.38689853798 0.0391162037893959 -15966.34778233419 652667.8553558084 34808.28671728438
        42  294.3171468695976 -15966.38490429277 0.03789486974800537 -15966.34700942302 652991.6349981596 34807.51240622591
        43  285.0637022226147 -15966.38357736075 0.03670344042304945 -15966.34687392033 653346.6301521417 34807.93792830784
        44  276.0647923999614 -15966.38195829971 0.03554478378604902 -15966.34641351592 653670.8600525844 34807.6332318022
        45  267.3416288324465 -15966.38077074928 0.03442163091949862 -15966.34634911836 654009.2596070435 34808.05035922468
        46  258.913561302068 -15966.37961815817 0.03333647320888589 -15966.34628168496 654337.254475746 34808.43821747963
        47  250.79947541975 -15966.37853981218 0.03229174227524848 -15966.34624806991 654654.0490223821 34808.79885676895
        48  243.0175337941332 -15966.37751482427 0.0312897766493042 -15966.34622504762 654958.9073572843 34809.13418458496
        49  235.5839189850012 -15966.37678753562 0.03033265992013955 -15966.34645487569 655266.7674068782 34809.93257956983
        50  228.5131896506988 -15966.37585243864 0.02942226659104987 -15966.34643017205 655544.9885793296 34810.18832051921
        51  221.8182863348192 -15966.37497255456 0.02856026282460553 -15966.34641229173 655810.1104214989 34810.42610817589
        52  215.5108690933492 -15966.3741481414 0.02774814991391015 -15966.34639999149 656061.7279878416 34810.64720221195
        53  209.6008676611173 -15966.37319709114 0.02698720636418152 -15966.34620988478 656287.8945949766 34810.48909109184
        54  204.0968715080166 -15966.37249718495 0.0262785381145274 -15966.34621864684 656512.4709692758 34810.705766349
        55  199.0061357772953 -15966.37185356057 0.02562307930253138 -15966.34623048127 656723.0668154625 34810.90722528951
        56  194.3342874874582 -15966.37097732857 0.02502155443621343 -15966.34595577414 656900.2569520123 34810.50988833808
        57  190.0852324023125 -15966.37033280044 0.02447446640306177 -15966.34585833404 657073.8579055869 34810.45330467827
        58  186.260887073919 -15966.36975574961 0.02398206196916354 -15966.34577368764 657234.1892752047 34810.41977911431
        59  182.8617748300635 -15966.36904066244 0.02354440851570429 -15966.34549625392 657367.2978472173 34809.97672471782
        60  179.887139833585 -15966.36872708733 0.02316140872470212 -15966.34556567861 657508.6267528639 34810.22937958463
        61  177.3346283096413 -15966.36836039714 0.02283275953535337 -15966.34552763761 657628.925988137 34810.26116092852
        62  175.2003782752161 -15966.36815452792 0.02255796369717526 -15966.34559656422 657741.2825373436 34810.49384441519
        63  173.4790800552782 -15966.3679976159 0.02233633756177745 -15966.34566127834 657839.0035754485 34810.71019006403
        64  172.163941729065 -15966.36788897111 0.02216700663389053 -15966.34572196448 657922.4830156915 34810.91134500818
        65  171.2468157085614 -15966.36782773489 0.02204892186900631 -15966.34577881302 657991.9589051562 34811.09837584353
        66  170.7182421822621 -15966.36781287883 0.02198086526698907 -15966.34583201357 658047.7628261064 34811.27227428106
        67  170.5674857543636 -15966.36777619172 0.02196145458956285 -15966.34581473713 658086.2674428291 34811.30271961236
        68  170.7827428889128 -15966.3679148176 0.02198917006982906 -15966.34592564753 658120.3345712292 34811.58429755187
        69  171.351046879655 -15966.36803155834 0.02206234217663802 -15966.34596921616 658137.7449706832 34811.72407687307
        70  172.2582681326363 -15966.36818901467 0.02217915165097551 -15966.34600986302 658143.0409286986 34811.85404154283
        71  173.4893983125879 -15966.36838542689 0.02233766609129377 -15966.3460477608 658137.1327148237 34811.97488069698
        72  175.0285223138675 -15966.36855664569 0.02253583634462381 -15966.34602080935 658116.1875386365 34811.95826111958
        73  176.8589107947906 -15966.36878907984 0.02277150842085375 -15966.34601757142 658086.4359758405 34811.98698763648
        74  178.9632200265914 -15966.36915183409 0.02304244922432637 -15966.34610938486 658053.320112168 34812.20998982847
        75  181.3233729194271 -15966.36945123521 0.02334633123531573 -15966.34610490398 658004.6799233108 34812.23253086998
        76  183.9207324015959 -15966.36978405753 0.02368075483350705 -15966.34610330269 657948.0387658083 34812.25863633392
        77  186.7363123195801 -15966.37011597872 0.02404327545247861 -15966.34607270327 657881.8881808684 34812.22432235263
        78  189.7507551845035 -15966.37053780845 0.02443140071444199 -15966.34610640774 657812.9069117168 34812.3191621046
        79  192.9444827936036 -15966.3709803471 0.02484260982354319 -15966.34613773728 657737.5293829228 34812.40734264047
        80  196.2976877561978 -15966.37144120889 0.0252743524747866 -15966.34616685642 657656.0341446729 34812.48933153992
        81  199.7904175754498 -15966.37191797541 0.02572405968000143 -15966.34619391573 657568.9415978146 34812.56556354948
        82  203.4026923558795 -15966.37240821598 0.02618915892329844 -15966.34621905706 657476.870662786 34812.63644289575
        83  207.1146218378935 -15966.37290950272 0.02666708922987696 -15966.34624241349 657380.7423922316 34812.7023454162
        84  210.9064619775567 -15966.37341941734 0.02715530845096591 -15966.34626410889 657280.9025055256 34812.76362056081
        85  214.7586767338495 -15966.37395257725 0.02765130121925588 -15966.34630127603 657179.1386664552 34812.85598948817
        86  218.6520385661896 -15966.37447138638 0.02815259188847997 -15966.34631879449 657073.8922308323 34812.90647644279
        87  222.5676956701615 -15966.37499181378 0.02865675319036501 -15966.34633506059 656967.4347639419 34812.95341843241
        88  226.4872255331096 -15966.37551157496 0.02916141313019395 -15966.34635016183 656860.0674669867 34812.99706436924
        89  230.3927451860717 -15966.37602844838 0.02966426918231805 -15966.3463641792 656752.4727695116 34813.03764568635
        90  234.2669499249741 -15966.37654028471 0.03016309327571298 -15966.34637719144 656644.9492241745 34813.07537756759
        91  238.093128416546 -15966.37704500171 0.03065573373894423 -15966.34638926797 656538.482028703 34813.11046008709
        92  241.8552362671478 -15966.37753036796 0.03114012477253789 -15966.34639024318 656432.5696570912 34813.12181583609
        93  245.5379550733927 -15966.37800583196 0.03161429405205668 -15966.3463915379 656328.399247166 34813.13386725775
        94  249.1267396096652 -15966.37847891472 0.03207636880373928 -15966.34640254592 656226.8386115468 34813.16484289672
        95  252.607856667574 -15966.37893734145 0.03252458080528284 -15966.34641276065 656127.7531488887 34813.19364356673
        96  255.9684769961499 -15966.37936080193 0.03295727822362357 -15966.34640352371 656030.7016490978 34813.18205670273
        97  259.1966490160845 -15966.37977926184 0.03337292223050767 -15966.3464063396 655938.3022761735 34813.19487310089
        98  262.2812783756068 -15966.38018631834 0.03377008437020374 -15966.34641623397 655850.2106615052 34813.22156518617
        99  265.212194261076 -15966.38057277579 0.03414745509733785 -15966.34642532069 655766.346851337 34813.24638307427
       100  267.9801595178403 -15966.38093780213 0.03450384508000699 -15966.34643395705 655686.9592975616 34813.26945836291
Loop time of 6.34013 on 1 procs for 100 steps with 256 atoms

Performance: 1.363 ns/day, 17.611 hours/ns, 15.773 timesteps/s, 4.038 katom-step/s
99.6% CPU use with 1 MPI tasks x 1 OpenMP threads

MPI task timing breakdown:
Section |  min time  |  avg time  |  max time  |%varavg| %total
---------------------------------------------------------------
Pair    | 6.3201     | 6.3201     | 6.3201     |   0.0 | 99.68
Neigh   | 0          | 0          | 0          |   0.0 |  0.00
Comm    | 0.00028105 | 0.00028105 | 0.00028105 |   0.0 |  0.00
Output  | 0.0011444  | 0.0011444  | 0.0011444  |   0.0 |  0.02
Modify  | 0.01852    | 0.01852    | 0.01852    |   0.0 |  0.29
Other   |            | 0.0001299  |            |       |  0.00

Nlocal:            256 ave         256 max         256 min
Histogram: 1 0 0 0 0 0 0 0 0 0
Nghost:            843 ave         843 max         843 min
Histogram: 1 0 0 0 0 0 0 0 0 0
Neighs:           5376 ave        5376 max        5376 min
Histogram: 1 0 0 0 0 0 0 0 0 0
FullNghs:        10752 ave       10752 max       10752 min
Histogram: 1 0 0 0 0 0 0 0 0 0

Total # of neighbors = 10752
Ave neighs/atom = 42
Neighbor list builds = 0
Dangerous builds = 0
Total wall time: 0:00:06
